
# --------------------------------------------------------------------------------------------------
# rutile TiO2 WITHOUT electric field
# NOTE: according to wikipedia, rutile melts at ~2200 K


# --------------------------------------------------------------------------------------------------
# define simulation domain
# --------------------------------------------------------------------------------------------------

units           metal
atom_style      bond

dimension       2
newton          on
boundary        p p p 

comm_modify     cutoff 10.0
neigh_modify    once yes

atom_modify     map array sort 100 1.0

# --------------------------------------------------------------------------------------------------
# define crystal
# -------------------------------------------------------------------------------------------------- 

bond_style      harmonic
read_data       unitcell.structure

# m_Cu = 64, m_O = 16, m_Ni = 60
# m_Ni/m_O \approx m_Cu/m_O = 4.

mass            1 4 # [m]=amu
mass            2 1  

bond_coeff      1 10 0.5 # [K]=E/A^2, [r_0]=A


# --------------------------------------------------------------------------------------------------
# define simulation paramters
# --------------------------------------------------------------------------------------------------

# highest freq. of optical modes in diatomic chain is w = \sqrt{(G+g)(m+M)/(mM)}
# in our simulation G==g but M!=m
# also note that LAMMPS K=G/2 so that G=2K 

# w = \sqrt{K/(m+M)}

variable        dt equal   0.0001    # timestep in ps

# --------------------------------------------------------------------------------------------------
# set some more params
# --------------------------------------------------------------------------------------------------

timestep        ${dt}
reset_timestep  0

dump            POS all custom 1 pos.dat id type xu yu zu
dump_modify     POS sort id
dump_modify     POS format line "%4d %4d %12.9f %12.9f %12.9f"

dump            FORCE all custom 1 force.dat id type fx fy fz  
dump_modify     FORCE sort id
dump_modify     FORCE format line "%4d %4d %12.9f %12.9f %12.9f"

run             0

undump          FORCE
undump          POS





