### general
ndtset      4

### file I/O
prtwf       0
prtden      1
getwfk      2
getden      1

### pp's
#pp_dirpath "/home/tyler/pseudos/abi/paw_pbe_kden/"
pp_dirpath "/projects/tyst3273/pseudos/abi/paw_pbe_JTH/"
pseudos    "Ni.GGA_PBE-JTH.xml,Br.GGA_PBE-JTH.xml"

### lattice 
ntypat      2
natom       3
typat       1 2 2
znucl       28 35
acell       1.0 1.0 1.0
rprim       6.8677859  0.1705556  10.926757
            3.2769269  6.0379896  10.926757
            0.2786878  0.1705559  12.902823
# xred        0.000000000000  0.000000000000 0.000000000000
#             0.262015792583  0.262015792583 0.262015792583
#             0.737984207417  0.737984207417 0.737984207417

### scf control
pawxcdev    0
nstep       200
ecut        600 eV
pawecutdg   1200 eV
occopt      7
tsmear      1000 K
tolvrs      1e-16

### kpoints
ngkpt       12 12 12
nshiftk     1
shiftk      0 0 0
kptopt      3

### qpoints -- 4x4x6 = 24 qpts
ngqpt       1 1 1
nshiftq     1
shiftq      0 0 0
qptopt      1

### respfn
nqpt        1
asr         1
chneut      1
rfphon      0

### ======== ground state ========

### gs
kptopt1     1
prtwf1      1
getden1     0
getwfk1     0
nqpt1       0

### tighten convergence on gs wfk
tolwfr2     1e-20
kptopt2     1
iscf2      -2
prtwf2      1
getwfk2     0
nqpt2       0

# ======== phonons ===========

### d/dk at q == 0,0,0
tolwfr3     1e-20
iscf3      -3
prtwf3      1
rfelfd3     2
iqpt3       1

### pert at q == 0,0,0
getddk4    -1
rfelfd4     3
iqpt4       1

xred         -0.003019802119   0.000239667232   0.002780134887
              0.263119346332   0.261928208807   0.260999822609
              0.739087761166   0.737896623641   0.736968237443
