Ti16 O28
1.0
   5.5694592800000002   -0.0067182800000000   -0.5240771700000000
  -2.3580444900000002    6.6911005799999996   -0.6336123400000000
  -0.0393505200000000   -0.0224052600000000   12.5050517800000005
Ti O
16 28
direct
   0.3119566100000000    0.5596660500000000    0.2985040200000000 Ti
   0.6880530600000000    0.4403256800000000    0.7014926500000001 Ti
   0.3181478100000000    0.0616135800000000    0.2978064100000000 Ti
   0.6818580100000000    0.9383901700000000    0.7021976200000000 Ti
   0.3119921700000000    0.0595472500000000    0.7984832100000000 Ti
   0.6880155000000000    0.9404582500000001    0.2015210900000000 Ti
   0.3181808300000000    0.5614525700000000    0.7978022100000000 Ti
   0.6818144800000000    0.4385462300000000    0.2021991400000000 Ti
   0.7856791900000000    0.8519811300000000    0.4352021000000000 Ti
   0.2143053500000000    0.1480142900000000    0.5647930000000000 Ti
   0.7841036000000000    0.3483510900000000    0.4385767400000000 Ti
   0.2159090500000000    0.6516511200000000    0.5614175900000000 Ti
   0.7857001800000000    0.3519300800000000    0.9351895400000000 Ti
   0.2143059300000000    0.6480748600000000    0.0648190100000000 Ti
   0.7840506100000000    0.8482526700000000    0.9385836500000000 Ti
   0.2159502600000000    0.1517529400000000    0.0614256500000000 Ti
   0.8899436200000000    0.6384641000000000    0.4838291500000000 O
   0.1100656000000000    0.3615309300000000    0.5161573900000000 O
   0.4121690500000000    0.7062495500000000    0.4417196800000000 O
   0.5878244600000000    0.2937533200000000    0.5582726500000000 O
   0.1462645000000000    0.0034243900000000    0.4169888900000000 O
   0.8537194700000000    0.9965664900000000    0.5830047699999999 O
   0.6720437000000000    0.0621861400000000    0.3610887400000000 O
   0.3279553300000000    0.9378158800000000    0.6389097900000000 O
   0.4735114800000000    0.3552531200000000    0.3360477400000000 O
   0.5264947400000000    0.6447464600000000    0.6639516300000000 O
   0.9640882300000000    0.4310754000000000    0.3022235100000000 O
   0.0359087700000000    0.5689048799999999    0.6977638600000000 O
   0.7045311900000000    0.7100934900000000    0.2768003200000000 O
   0.2954697600000000    0.2899063600000000    0.7231990200000000 O
   0.7045781400000000    0.2099660200000000    0.7767692800000000 O
   0.2954259000000000    0.7900293800000000    0.2232336000000000 O
   0.1100643100000000    0.8616181500000000    0.0162196200000000 O
   0.8899228500000000    0.1383854800000000    0.9837915900000000 O
   0.5878436100000000    0.7938151300000000    0.0583138300000000 O
   0.4121544100000000    0.2061841600000000    0.9416913400000000 O
   0.8536461300000000    0.4965489300000000    0.0829838200000000 O
   0.1463509500000000    0.5034575900000000    0.9170200300000000 O
   0.3279070400000000    0.4379131000000000    0.1389518000000000 O
   0.6720863500000001    0.5620871700000000    0.8610486300000000 O
   0.5264689500000000    0.1448780800000000    0.1639888300000000 O
   0.4735302800000000    0.8551214200000000    0.8360132400000000 O
   0.0358632000000000    0.0690857000000000    0.1978106700000000 O
   0.9641453400000000    0.9309302100000000    0.8021939400000000 O
