
# --------------------------------------------------------------------------------------------------
# rutile TiO2 WITHOUT electric field
# NOTE: according to wikipedia, rutile melts at ~2200 K


# --------------------------------------------------------------------------------------------------
# define simulation domain
# --------------------------------------------------------------------------------------------------

units           metal
atom_style      bond

dimension       2
newton          on
boundary        p p p 

comm_modify     cutoff 10.0
neigh_modify    once yes

atom_modify     map array sort 100 1.0

# --------------------------------------------------------------------------------------------------
# define crystal
# -------------------------------------------------------------------------------------------------- 

bond_style      harmonic
read_data       unitcell.prim

# m_Cu = 64, m_O = 16, m_Ni = 60
# m_Ni/m_O \approx m_Cu/m_O = 4.

mass            1 4 # [m]=amu
mass            2 1  

bond_coeff      1 10 0.5 # [K]=E/A^2, [r_0]=A


# --------------------------------------------------------------------------------------------------
# define simulation paramters
# --------------------------------------------------------------------------------------------------

# highest freq. of optical modes in diatomic chain is w = \sqrt{(G+g)(m+M)/(mM)}
# in our simulation G==g but M!=m
# also note that LAMMPS K=G/2 so that G=2K 

# w = \sqrt{K/(m+M)}

variable        dt equal   0.0001    # timestep in ps
variable        temp equal 10        # Kelvin

variable        seed equal 864215

variable        therm_run equal 10000
variable        nve_run equal 100000

variable        trj_dump equal 100
variable        thermo_dump equal 100

# --------------------------------------------------------------------------------------------------
# set some more params
# --------------------------------------------------------------------------------------------------

timestep        ${dt}
reset_timestep  0

thermo          ${thermo_dump}
thermo_style    custom step etotal temp ke pe  

dump            glob all custom ${trj_dump} total.lammpstrj id type x y z
dump_modify     glob sort id

# --------------------------------------------------------------------------------------------------
# thermalize
# --------------------------------------------------------------------------------------------------

velocity        all create ${temp} ${seed} mom yes rot yes dist gaussian

fix             THERM all nvt temp ${temp} ${temp} $(100.0*dt) 
fix             2D all enforce2d
run             ${therm_run}
unfix           THERM
unfix           2D

# --------------------------------------------------------------------------------------------------
# do nve run
# --------------------------------------------------------------------------------------------------

fix             NVE all nve
fix             2D all enforce2d
run             ${nve_run}
unfix           NVE
unfix           2D


# --------------------------------------------------------------------------------------------------
# finalize stuff
# --------------------------------------------------------------------------------------------------

undump          glob
write_data      unitcell.thermalized


