written by diffit!
1.0
     4.593000     0.000000     0.000000
     0.000000     4.593000     0.000000
     0.000000     0.000000     2.981000
 O Ti Zr
 4 1 1
Direct
     0.195340     0.804660     0.500000
     0.804660     0.195340     0.500000
     0.304660     0.304660     0.000000
     0.695340     0.695340     0.000000
     0.000000     0.000000     0.000000
     0.500000     0.500000     0.500000
