auto generated
 1.0
  45.9300000   0.0000000   0.0000000
   0.0000000  45.9300000   0.0000000
   0.0000000   0.0000000  29.8100000
 Ti O 
   2000  4000
Direct
 0.050000000  0.050000000  0.050000000
 0.800000000  0.200000000  0.400000000
 0.200000000  0.600000000  0.300000000
 0.250000000  0.650000000  0.350000000
 0.650000000  0.750000000  0.850000000
 0.450000000  0.850000000  0.350000000
 0.200000000  0.600000000  0.200000000
 0.250000000  0.650000000  0.250000000
 0.850000000  0.250000000  0.550000000
 0.800000000  0.200000000  0.500000000
 0.400000000  0.800000000  0.300000000
 0.200000000  0.600000000  0.100000000
 0.250000000  0.650000000  0.150000000
 0.600000000  0.700000000  0.700000000
 0.850000000  0.250000000  0.650000000
 0.850000000  0.250000000  0.450000000
 0.800000000  0.200000000  0.600000000
 0.250000000  0.650000000  0.050000000
 0.650000000  0.750000000  0.750000000
 0.450000000  0.850000000  0.450000000
 0.400000000  0.800000000  0.400000000
 0.200000000  0.500000000  0.900000000
 0.250000000  0.550000000  0.950000000
 0.850000000  0.250000000  0.750000000
 0.800000000  0.200000000  0.700000000
 0.200000000  0.500000000  0.800000000
 0.250000000  0.550000000  0.850000000
 0.450000000  0.850000000  0.550000000
 0.850000000  0.250000000  0.850000000
 0.800000000  0.200000000  0.800000000
 0.200000000  0.500000000  0.700000000
 0.200000000  0.600000000  0.000000000
 0.600000000  0.700000000  0.800000000
 0.400000000  0.800000000  0.200000000
 0.250000000  0.650000000  0.450000000
 0.400000000  0.700000000  0.900000000
 0.600000000  0.800000000  0.000000000
 0.200000000  0.700000000  0.000000000
 0.250000000  0.750000000  0.050000000
 0.650000000  0.850000000  0.050000000
 0.850000000  0.250000000  0.050000000
 0.800000000  0.200000000  0.000000000
 0.200000000  0.600000000  0.900000000
 0.250000000  0.650000000  0.950000000
 0.450000000  0.850000000  0.050000000
 0.400000000  0.800000000  0.000000000
 0.200000000  0.600000000  0.800000000
 0.250000000  0.650000000  0.850000000
 0.850000000  0.250000000  0.150000000
 0.800000000  0.200000000  0.100000000
 0.600000000  0.700000000  0.900000000
 0.200000000  0.600000000  0.700000000
 0.200000000  0.600000000  0.400000000
 0.450000000  0.850000000  0.250000000
 0.800000000  0.200000000  0.300000000
 0.850000000  0.250000000  0.350000000
 0.250000000  0.650000000  0.550000000
 0.200000000  0.600000000  0.500000000
 0.250000000  0.550000000  0.750000000
 0.400000000  0.800000000  0.100000000
 0.200000000  0.600000000  0.600000000
 0.800000000  0.200000000  0.200000000
 0.850000000  0.250000000  0.250000000
 0.450000000  0.850000000  0.150000000
 0.650000000  0.750000000  0.950000000
 0.250000000  0.650000000  0.750000000
 0.250000000  0.650000000  0.650000000
 0.800000000  0.100000000  0.900000000
 0.400000000  0.800000000  0.500000000
 0.650000000  0.750000000  0.650000000
 0.250000000  0.450000000  0.950000000
 0.450000000  0.850000000  0.950000000
 0.850000000  0.350000000  0.450000000
 0.800000000  0.300000000  0.400000000
 0.200000000  0.400000000  0.800000000
 0.250000000  0.450000000  0.850000000
 0.400000000  0.800000000  0.900000000
 0.600000000  0.700000000  0.300000000
 0.200000000  0.400000000  0.700000000
 0.250000000  0.450000000  0.750000000
 0.850000000  0.350000000  0.550000000
 0.800000000  0.300000000  0.500000000
 0.650000000  0.750000000  0.350000000
 0.450000000  0.950000000  0.050000000
 0.200000000  0.400000000  0.900000000
 0.200000000  0.400000000  0.600000000
 0.400000000  0.900000000  0.000000000
 0.850000000  0.350000000  0.650000000
 0.800000000  0.300000000  0.600000000
 0.200000000  0.400000000  0.500000000
 0.250000000  0.450000000  0.550000000
 0.450000000  0.950000000  0.150000000
 0.200000000  0.400000000  0.400000000
 0.250000000  0.450000000  0.450000000
 0.850000000  0.350000000  0.750000000
 0.800000000  0.300000000  0.700000000
 0.400000000  0.900000000  0.100000000
 0.600000000  0.700000000  0.200000000
 0.200000000  0.400000000  0.300000000
 0.250000000  0.450000000  0.350000000
 0.250000000  0.450000000  0.650000000
 0.650000000  0.750000000  0.450000000
 0.800000000  0.300000000  0.300000000
 0.850000000  0.350000000  0.350000000
 0.200000000  0.500000000  0.600000000
 0.250000000  0.550000000  0.650000000
 0.850000000  0.250000000  0.950000000
 0.800000000  0.200000000  0.900000000
 0.450000000  0.850000000  0.650000000
 0.200000000  0.500000000  0.500000000
 0.250000000  0.550000000  0.550000000
 0.400000000  0.800000000  0.600000000
 0.850000000  0.350000000  0.050000000
 0.800000000  0.300000000  0.000000000
 0.200000000  0.500000000  0.400000000
 0.250000000  0.550000000  0.450000000
 0.600000000  0.700000000  0.500000000
 0.650000000  0.750000000  0.550000000
 0.450000000  0.850000000  0.750000000
 0.200000000  0.500000000  0.300000000
 0.250000000  0.550000000  0.350000000
 0.250000000  0.550000000  0.050000000
 0.200000000  0.500000000  0.000000000
 0.600000000  0.700000000  0.400000000
 0.400000000  0.800000000  0.800000000
 0.450000000  0.850000000  0.850000000
 0.250000000  0.550000000  0.150000000
 0.600000000  0.700000000  0.600000000
 0.200000000  0.500000000  0.100000000
 0.850000000  0.350000000  0.250000000
 0.250000000  0.550000000  0.250000000
 0.200000000  0.500000000  0.200000000
 0.400000000  0.800000000  0.700000000
 0.800000000  0.300000000  0.100000000
 0.850000000  0.350000000  0.150000000
 0.800000000  0.300000000  0.200000000
 0.850000000  0.150000000  0.950000000
 0.250000000  0.750000000  0.150000000
 0.200000000  0.700000000  0.100000000
 0.250000000  0.950000000  0.250000000
 0.850000000  0.050000000  0.550000000
 0.800000000  0.000000000  0.500000000
 0.450000000  0.750000000  0.050000000
 0.200000000  0.900000000  0.100000000
 0.250000000  0.950000000  0.150000000
 0.400000000  0.700000000  0.000000000
 0.600000000  0.800000000  0.600000000
 0.850000000  0.050000000  0.650000000
 0.800000000  0.000000000  0.600000000
 0.200000000  0.900000000  0.000000000
 0.250000000  0.950000000  0.050000000
 0.650000000  0.850000000  0.650000000
 0.450000000  0.750000000  0.150000000
 0.200000000  0.900000000  0.200000000
 0.200000000  0.800000000  0.900000000
 0.850000000  0.050000000  0.750000000
 0.800000000  0.000000000  0.700000000
 0.400000000  0.700000000  0.100000000
 0.200000000  0.800000000  0.800000000
 0.250000000  0.850000000  0.850000000
 0.600000000  0.800000000  0.500000000
 0.850000000  0.050000000  0.850000000
 0.800000000  0.000000000  0.800000000
 0.200000000  0.800000000  0.700000000
 0.250000000  0.850000000  0.750000000
 0.650000000  0.850000000  0.550000000
 0.450000000  0.750000000  0.250000000
 0.400000000  0.700000000  0.200000000
 0.200000000  0.800000000  0.600000000
 0.250000000  0.850000000  0.950000000
 0.400000000  0.600000000  0.900000000
 0.250000000  0.950000000  0.350000000
 0.200000000  0.900000000  0.300000000
 0.850000000  0.050000000  0.050000000
 0.800000000  0.000000000  0.000000000
 0.200000000  0.900000000  0.900000000
 0.250000000  0.950000000  0.950000000
 0.450000000  0.650000000  0.750000000
 0.200000000  0.900000000  0.800000000
 0.250000000  0.950000000  0.850000000
 0.850000000  0.050000000  0.150000000
 0.800000000  0.000000000  0.100000000
 0.400000000  0.600000000  0.700000000
 0.600000000  0.800000000  0.800000000
 0.200000000  0.900000000  0.700000000
 0.250000000  0.950000000  0.750000000
 0.650000000  0.850000000  0.850000000
 0.850000000  0.050000000  0.250000000
 0.800000000  0.000000000  0.200000000
 0.200000000  0.900000000  0.600000000
 0.800000000  0.000000000  0.400000000
 0.850000000  0.050000000  0.450000000
 0.450000000  0.650000000  0.950000000
 0.650000000  0.850000000  0.750000000
 0.250000000  0.950000000  0.450000000
 0.200000000  0.900000000  0.400000000
 0.250000000  0.850000000  0.650000000
 0.600000000  0.800000000  0.700000000
 0.850000000  0.050000000  0.350000000
 0.250000000  0.950000000  0.550000000
 0.200000000  0.900000000  0.500000000
 0.400000000  0.600000000  0.800000000
 0.450000000  0.650000000  0.850000000
 0.250000000  0.950000000  0.650000000
 0.800000000  0.000000000  0.300000000
 0.850000000  0.050000000  0.950000000
 0.800000000  0.000000000  0.900000000
 0.200000000  0.800000000  0.500000000
 0.450000000  0.750000000  0.650000000
 0.400000000  0.700000000  0.600000000
 0.600000000  0.800000000  0.200000000
 0.200000000  0.700000000  0.700000000
 0.250000000  0.750000000  0.750000000
 0.850000000  0.150000000  0.550000000
 0.800000000  0.100000000  0.500000000
 0.650000000  0.850000000  0.250000000
 0.200000000  0.700000000  0.600000000
 0.250000000  0.750000000  0.650000000
 0.450000000  0.750000000  0.750000000
 0.850000000  0.150000000  0.650000000
 0.800000000  0.100000000  0.600000000
 0.200000000  0.700000000  0.500000000
 0.250000000  0.750000000  0.550000000
 0.400000000  0.700000000  0.700000000
 0.600000000  0.800000000  0.100000000
 0.450000000  0.750000000  0.950000000
 0.250000000  0.750000000  0.250000000
 0.200000000  0.700000000  0.200000000
 0.800000000  0.100000000  0.800000000
 0.850000000  0.150000000  0.850000000
 0.400000000  0.700000000  0.800000000
 0.250000000  0.750000000  0.850000000
 0.250000000  0.750000000  0.350000000
 0.450000000  0.750000000  0.850000000
 0.650000000  0.850000000  0.150000000
 0.800000000  0.100000000  0.700000000
 0.850000000  0.150000000  0.750000000
 0.250000000  0.750000000  0.450000000
 0.200000000  0.700000000  0.400000000
 0.200000000  0.700000000  0.300000000
 0.650000000  0.750000000  0.250000000
 0.200000000  0.700000000  0.800000000
 0.850000000  0.150000000  0.450000000
 0.250000000  0.850000000  0.550000000
 0.450000000  0.750000000  0.350000000
 0.850000000  0.150000000  0.050000000
 0.800000000  0.100000000  0.000000000
 0.200000000  0.800000000  0.400000000
 0.250000000  0.850000000  0.450000000
 0.400000000  0.700000000  0.300000000
 0.600000000  0.800000000  0.400000000
 0.650000000  0.850000000  0.450000000
 0.200000000  0.800000000  0.300000000
 0.250000000  0.850000000  0.350000000
 0.850000000  0.150000000  0.150000000
 0.800000000  0.100000000  0.100000000
 0.450000000  0.750000000  0.450000000
 0.200000000  0.800000000  0.200000000
 0.250000000  0.850000000  0.250000000
 0.400000000  0.700000000  0.400000000
 0.250000000  0.750000000  0.950000000
 0.200000000  0.700000000  0.900000000
 0.400000000  0.700000000  0.500000000
 0.800000000  0.100000000  0.300000000
 0.850000000  0.150000000  0.350000000
 0.250000000  0.850000000  0.050000000
 0.800000000  0.100000000  0.400000000
 0.200000000  0.800000000  0.000000000
 0.650000000  0.850000000  0.350000000
 0.600000000  0.800000000  0.300000000
 0.250000000  0.850000000  0.150000000
 0.200000000  0.800000000  0.100000000
 0.800000000  0.100000000  0.200000000
 0.850000000  0.150000000  0.250000000
 0.450000000  0.750000000  0.550000000
 0.850000000  0.350000000  0.850000000
 0.800000000  0.300000000  0.800000000
 0.200000000  0.400000000  0.200000000
 0.650000000  0.650000000  0.150000000
 0.550000000  0.050000000  0.850000000
 0.500000000  0.000000000  0.800000000
 0.200000000  0.000000000  0.500000000
 0.250000000  0.050000000  0.550000000
 0.850000000  0.650000000  0.350000000
 0.800000000  0.600000000  0.300000000
 0.200000000  0.000000000  0.400000000
 0.250000000  0.050000000  0.450000000
 0.550000000  0.050000000  0.950000000
 0.850000000  0.650000000  0.450000000
 0.800000000  0.600000000  0.400000000
 0.200000000  0.000000000  0.300000000
 0.250000000  0.050000000  0.350000000
 0.250000000  0.050000000  0.650000000
 0.500000000  0.000000000  0.900000000
 0.650000000  0.650000000  0.050000000
 0.200000000  0.000000000  0.200000000
 0.250000000  0.050000000  0.250000000
 0.850000000  0.650000000  0.550000000
 0.800000000  0.600000000  0.500000000
 0.550000000  0.150000000  0.050000000
 0.200000000  0.000000000  0.100000000
 0.250000000  0.050000000  0.150000000
 0.500000000  0.100000000  0.000000000
 0.850000000  0.650000000  0.650000000
 0.800000000  0.600000000  0.600000000
 0.200000000  0.000000000  0.000000000
 0.250000000  0.050000000  0.050000000
 0.600000000  0.500000000  0.900000000
 0.600000000  0.600000000  0.000000000
 0.200000000  0.000000000  0.600000000
 0.800000000  0.600000000  0.200000000
 0.850000000  0.650000000  0.250000000
 0.250000000  0.150000000  0.350000000
 0.650000000  0.650000000  0.350000000
 0.550000000  0.050000000  0.550000000
 0.850000000  0.550000000  0.850000000
 0.800000000  0.500000000  0.800000000
 0.200000000  0.100000000  0.200000000
 0.250000000  0.150000000  0.250000000
 0.500000000  0.000000000  0.500000000
 0.200000000  0.100000000  0.100000000
 0.250000000  0.150000000  0.150000000
 0.850000000  0.550000000  0.950000000
 0.800000000  0.500000000  0.900000000
 0.550000000  0.050000000  0.650000000
 0.200000000  0.100000000  0.000000000
 0.250000000  0.150000000  0.050000000
 0.500000000  0.000000000  0.600000000
 0.600000000  0.600000000  0.200000000
 0.600000000  0.600000000  0.100000000
 0.250000000  0.050000000  0.750000000
 0.200000000  0.000000000  0.700000000
 0.450000000  0.150000000  0.550000000
 0.800000000  0.600000000  0.100000000
 0.850000000  0.650000000  0.150000000
 0.650000000  0.550000000  0.950000000
 0.250000000  0.050000000  0.850000000
 0.550000000  0.050000000  0.750000000
 0.650000000  0.650000000  0.250000000
 0.250000000  0.050000000  0.950000000
 0.200000000  0.000000000  0.900000000
 0.800000000  0.600000000  0.000000000
 0.850000000  0.650000000  0.050000000
 0.200000000  0.000000000  0.800000000
 0.550000000  0.150000000  0.150000000
 0.100000000  0.900000000  0.900000000
 0.150000000  0.950000000  0.950000000
 0.850000000  0.750000000  0.250000000
 0.800000000  0.700000000  0.200000000
 0.100000000  0.900000000  0.100000000
 0.150000000  0.950000000  0.150000000
 0.550000000  0.150000000  0.550000000
 0.100000000  0.900000000  0.000000000
 0.150000000  0.950000000  0.050000000
 0.850000000  0.750000000  0.350000000
 0.800000000  0.700000000  0.300000000
 0.500000000  0.100000000  0.500000000
 0.600000000  0.500000000  0.600000000
 0.100000000  0.800000000  0.900000000
 0.150000000  0.850000000  0.950000000
 0.650000000  0.550000000  0.650000000
 0.850000000  0.750000000  0.450000000
 0.800000000  0.700000000  0.400000000
 0.100000000  0.800000000  0.800000000
 0.800000000  0.700000000  0.600000000
 0.850000000  0.750000000  0.650000000
 0.550000000  0.150000000  0.750000000
 0.650000000  0.550000000  0.550000000
 0.150000000  0.850000000  0.650000000
 0.100000000  0.800000000  0.600000000
 0.500000000  0.100000000  0.400000000
 0.600000000  0.500000000  0.500000000
 0.850000000  0.750000000  0.550000000
 0.150000000  0.850000000  0.750000000
 0.100000000  0.800000000  0.700000000
 0.500000000  0.100000000  0.600000000
 0.550000000  0.150000000  0.650000000
 0.150000000  0.850000000  0.850000000
 0.800000000  0.700000000  0.500000000
 0.200000000  0.100000000  0.300000000
 0.150000000  0.950000000  0.250000000
 0.550000000  0.150000000  0.450000000
 0.850000000  0.650000000  0.750000000
 0.800000000  0.600000000  0.700000000
 0.500000000  0.100000000  0.100000000
 0.100000000  0.900000000  0.800000000
 0.150000000  0.950000000  0.850000000
 0.850000000  0.650000000  0.850000000
 0.800000000  0.600000000  0.800000000
 0.100000000  0.900000000  0.700000000
 0.150000000  0.950000000  0.750000000
 0.550000000  0.150000000  0.250000000
 0.500000000  0.100000000  0.200000000
 0.600000000  0.500000000  0.800000000
 0.100000000  0.900000000  0.600000000
 0.150000000  0.950000000  0.650000000
 0.850000000  0.650000000  0.950000000
 0.800000000  0.600000000  0.900000000
 0.650000000  0.550000000  0.850000000
 0.650000000  0.550000000  0.750000000
 0.800000000  0.700000000  0.100000000
 0.850000000  0.750000000  0.150000000
 0.150000000  0.950000000  0.350000000
 0.100000000  0.900000000  0.300000000
 0.600000000  0.500000000  0.700000000
 0.100000000  0.900000000  0.200000000
 0.500000000  0.100000000  0.300000000
 0.100000000  0.900000000  0.400000000
 0.800000000  0.700000000  0.000000000
 0.850000000  0.750000000  0.050000000
 0.550000000  0.150000000  0.350000000
 0.150000000  0.950000000  0.550000000
 0.100000000  0.900000000  0.500000000
 0.150000000  0.950000000  0.450000000
 0.650000000  0.050000000  0.050000000
 0.600000000  0.600000000  0.300000000
 0.850000000  0.550000000  0.750000000
 0.800000000  0.400000000  0.300000000
 0.400000000  0.900000000  0.500000000
 0.200000000  0.300000000  0.400000000
 0.250000000  0.350000000  0.450000000
 0.600000000  0.600000000  0.900000000
 0.850000000  0.450000000  0.450000000
 0.800000000  0.400000000  0.400000000
 0.200000000  0.300000000  0.300000000
 0.250000000  0.350000000  0.350000000
 0.650000000  0.650000000  0.950000000
 0.450000000  0.950000000  0.650000000
 0.400000000  0.900000000  0.600000000
 0.200000000  0.300000000  0.200000000
 0.250000000  0.350000000  0.250000000
 0.850000000  0.450000000  0.350000000
 0.850000000  0.450000000  0.550000000
 0.200000000  0.300000000  0.100000000
 0.250000000  0.350000000  0.150000000
 0.450000000  0.950000000  0.750000000
 0.850000000  0.450000000  0.650000000
 0.800000000  0.400000000  0.600000000
 0.200000000  0.300000000  0.000000000
 0.250000000  0.350000000  0.050000000
 0.400000000  0.900000000  0.700000000
 0.600000000  0.600000000  0.800000000
 0.650000000  0.650000000  0.850000000
 0.200000000  0.200000000  0.900000000
 0.250000000  0.250000000  0.950000000
 0.850000000  0.450000000  0.750000000
 0.800000000  0.400000000  0.700000000
 0.800000000  0.400000000  0.500000000
 0.250000000  0.350000000  0.550000000
 0.200000000  0.300000000  0.500000000
 0.450000000  0.950000000  0.550000000
 0.250000000  0.450000000  0.250000000
 0.450000000  0.950000000  0.250000000
 0.400000000  0.900000000  0.200000000
 0.200000000  0.400000000  0.100000000
 0.250000000  0.450000000  0.150000000
 0.850000000  0.350000000  0.950000000
 0.800000000  0.300000000  0.900000000
 0.600000000  0.700000000  0.100000000
 0.200000000  0.400000000  0.000000000
 0.250000000  0.450000000  0.050000000
 0.650000000  0.750000000  0.150000000
 0.450000000  0.950000000  0.350000000
 0.850000000  0.450000000  0.050000000
 0.800000000  0.400000000  0.000000000
 0.200000000  0.300000000  0.900000000
 0.250000000  0.350000000  0.950000000
 0.400000000  0.900000000  0.300000000
 0.650000000  0.750000000  0.050000000
 0.250000000  0.350000000  0.650000000
 0.200000000  0.300000000  0.600000000
 0.800000000  0.400000000  0.200000000
 0.850000000  0.450000000  0.250000000
 0.600000000  0.700000000  0.000000000
 0.450000000  0.950000000  0.850000000
 0.400000000  0.900000000  0.400000000
 0.200000000  0.300000000  0.700000000
 0.450000000  0.950000000  0.450000000
 0.800000000  0.400000000  0.100000000
 0.850000000  0.450000000  0.150000000
 0.250000000  0.350000000  0.850000000
 0.200000000  0.300000000  0.800000000
 0.250000000  0.350000000  0.750000000
 0.200000000  0.200000000  0.800000000
 0.250000000  0.250000000  0.850000000
 0.400000000  0.900000000  0.800000000
 0.200000000  0.200000000  0.000000000
 0.250000000  0.250000000  0.050000000
 0.850000000  0.550000000  0.350000000
 0.800000000  0.500000000  0.300000000
 0.650000000  0.650000000  0.550000000
 0.550000000  0.050000000  0.250000000
 0.200000000  0.100000000  0.900000000
 0.250000000  0.150000000  0.950000000
 0.500000000  0.000000000  0.200000000
 0.850000000  0.550000000  0.450000000
 0.800000000  0.500000000  0.400000000
 0.200000000  0.100000000  0.800000000
 0.250000000  0.150000000  0.850000000
 0.550000000  0.050000000  0.350000000
 0.200000000  0.100000000  0.700000000
 0.250000000  0.150000000  0.750000000
 0.850000000  0.550000000  0.550000000
 0.250000000  0.150000000  0.450000000
 0.200000000  0.100000000  0.400000000
 0.500000000  0.000000000  0.400000000
 0.550000000  0.050000000  0.450000000
 0.250000000  0.150000000  0.550000000
 0.200000000  0.100000000  0.500000000
 0.600000000  0.600000000  0.500000000
 0.800000000  0.500000000  0.600000000
 0.650000000  0.650000000  0.450000000
 0.250000000  0.150000000  0.650000000
 0.200000000  0.100000000  0.600000000
 0.600000000  0.600000000  0.400000000
 0.500000000  0.000000000  0.300000000
 0.800000000  0.500000000  0.500000000
 0.850000000  0.550000000  0.650000000
 0.800000000  0.500000000  0.700000000
 0.500000000  0.000000000  0.100000000
 0.200000000  0.200000000  0.100000000
 0.850000000  0.450000000  0.850000000
 0.800000000  0.400000000  0.800000000
 0.200000000  0.200000000  0.700000000
 0.250000000  0.250000000  0.750000000
 0.600000000  0.600000000  0.700000000
 0.650000000  0.650000000  0.750000000
 0.450000000  0.950000000  0.950000000
 0.200000000  0.200000000  0.600000000
 0.250000000  0.250000000  0.650000000
 0.850000000  0.450000000  0.950000000
 0.800000000  0.400000000  0.900000000
 0.400000000  0.900000000  0.900000000
 0.200000000  0.200000000  0.500000000
 0.250000000  0.250000000  0.550000000
 0.850000000  0.550000000  0.050000000
 0.800000000  0.500000000  0.000000000
 0.200000000  0.200000000  0.400000000
 0.800000000  0.500000000  0.200000000
 0.850000000  0.550000000  0.250000000
 0.550000000  0.050000000  0.150000000
 0.250000000  0.250000000  0.250000000
 0.200000000  0.200000000  0.200000000
 0.650000000  0.650000000  0.650000000
 0.250000000  0.250000000  0.150000000
 0.800000000  0.500000000  0.100000000
 0.250000000  0.250000000  0.350000000
 0.200000000  0.200000000  0.300000000
 0.600000000  0.600000000  0.600000000
 0.500000000  0.000000000  0.000000000
 0.550000000  0.050000000  0.050000000
 0.250000000  0.250000000  0.450000000
 0.850000000  0.550000000  0.150000000
 0.100000000  0.800000000  0.500000000
 0.350000000  0.050000000  0.050000000
 0.400000000  0.600000000  0.600000000
 0.700000000  0.100000000  0.200000000
 0.750000000  0.150000000  0.250000000
 0.300000000  0.700000000  0.800000000
 0.350000000  0.750000000  0.850000000
 0.750000000  0.450000000  0.850000000
 0.700000000  0.400000000  0.800000000
 0.300000000  0.700000000  0.700000000
 0.350000000  0.750000000  0.750000000
 0.450000000  0.350000000  0.250000000
 0.400000000  0.300000000  0.200000000
 0.300000000  0.700000000  0.600000000
 0.350000000  0.750000000  0.650000000
 0.750000000  0.450000000  0.950000000
 0.700000000  0.400000000  0.900000000
 0.700000000  0.400000000  0.700000000
 0.700000000  0.100000000  0.100000000
 0.300000000  0.700000000  0.500000000
 0.350000000  0.750000000  0.550000000
 0.450000000  0.350000000  0.350000000
 0.400000000  0.300000000  0.300000000
 0.750000000  0.550000000  0.050000000
 0.700000000  0.500000000  0.000000000
 0.300000000  0.700000000  0.400000000
 0.350000000  0.750000000  0.450000000
 0.300000000  0.700000000  0.300000000
 0.350000000  0.750000000  0.350000000
 0.750000000  0.550000000  0.150000000
 0.700000000  0.500000000  0.100000000
 0.450000000  0.350000000  0.450000000
 0.400000000  0.300000000  0.400000000
 0.750000000  0.150000000  0.150000000
 0.750000000  0.450000000  0.750000000
 0.350000000  0.750000000  0.950000000
 0.300000000  0.700000000  0.900000000
 0.400000000  0.200000000  0.800000000
 0.700000000  0.100000000  0.400000000
 0.750000000  0.150000000  0.450000000
 0.300000000  0.800000000  0.500000000
 0.350000000  0.850000000  0.550000000
 0.750000000  0.450000000  0.350000000
 0.700000000  0.400000000  0.300000000
 0.300000000  0.800000000  0.400000000
 0.350000000  0.850000000  0.450000000
 0.450000000  0.250000000  0.950000000
 0.400000000  0.200000000  0.900000000
 0.750000000  0.450000000  0.450000000
 0.700000000  0.400000000  0.400000000
 0.300000000  0.800000000  0.300000000
 0.350000000  0.850000000  0.350000000
 0.700000000  0.100000000  0.300000000
 0.750000000  0.150000000  0.350000000
 0.400000000  0.300000000  0.100000000
 0.450000000  0.350000000  0.150000000
 0.350000000  0.850000000  0.050000000
 0.300000000  0.800000000  0.000000000
 0.700000000  0.400000000  0.600000000
 0.750000000  0.450000000  0.650000000
 0.300000000  0.700000000  0.200000000
 0.350000000  0.850000000  0.150000000
 0.400000000  0.300000000  0.000000000
 0.450000000  0.350000000  0.050000000
 0.700000000  0.400000000  0.500000000
 0.750000000  0.450000000  0.550000000
 0.350000000  0.850000000  0.250000000
 0.300000000  0.800000000  0.200000000
 0.300000000  0.800000000  0.100000000
 0.450000000  0.250000000  0.850000000
 0.350000000  0.750000000  0.250000000
 0.750000000  0.150000000  0.050000000
 0.350000000  0.650000000  0.450000000
 0.750000000  0.550000000  0.750000000
 0.700000000  0.500000000  0.700000000
 0.450000000  0.350000000  0.850000000
 0.400000000  0.300000000  0.800000000
 0.300000000  0.600000000  0.300000000
 0.350000000  0.650000000  0.350000000
 0.750000000  0.550000000  0.850000000
 0.700000000  0.500000000  0.800000000
 0.300000000  0.600000000  0.200000000
 0.350000000  0.650000000  0.250000000
 0.700000000  0.000000000  0.700000000
 0.750000000  0.050000000  0.750000000
 0.450000000  0.350000000  0.950000000
 0.300000000  0.600000000  0.400000000
 0.400000000  0.300000000  0.900000000
 0.350000000  0.650000000  0.150000000
 0.750000000  0.550000000  0.950000000
 0.700000000  0.500000000  0.900000000
 0.300000000  0.600000000  0.000000000
 0.350000000  0.650000000  0.050000000
 0.750000000  0.650000000  0.050000000
 0.700000000  0.600000000  0.000000000
 0.300000000  0.500000000  0.900000000
 0.350000000  0.550000000  0.950000000
 0.450000000  0.450000000  0.050000000
 0.400000000  0.400000000  0.000000000
 0.700000000  0.000000000  0.600000000
 0.750000000  0.050000000  0.650000000
 0.300000000  0.500000000  0.800000000
 0.300000000  0.600000000  0.100000000
 0.750000000  0.050000000  0.850000000
 0.700000000  0.000000000  0.800000000
 0.350000000  0.650000000  0.550000000
 0.750000000  0.550000000  0.250000000
 0.700000000  0.500000000  0.200000000
 0.300000000  0.700000000  0.100000000
 0.350000000  0.750000000  0.150000000
 0.450000000  0.350000000  0.550000000
 0.400000000  0.300000000  0.500000000
 0.300000000  0.700000000  0.000000000
 0.350000000  0.750000000  0.050000000
 0.750000000  0.550000000  0.350000000
 0.700000000  0.500000000  0.300000000
 0.300000000  0.600000000  0.900000000
 0.350000000  0.650000000  0.950000000
 0.700000000  0.000000000  0.900000000
 0.750000000  0.050000000  0.950000000
 0.750000000  0.550000000  0.450000000
 0.700000000  0.500000000  0.400000000
 0.300000000  0.600000000  0.800000000
 0.300000000  0.600000000  0.500000000
 0.700000000  0.500000000  0.600000000
 0.750000000  0.550000000  0.650000000
 0.400000000  0.300000000  0.700000000
 0.450000000  0.350000000  0.750000000
 0.350000000  0.650000000  0.650000000
 0.700000000  0.100000000  0.000000000
 0.300000000  0.600000000  0.600000000
 0.750000000  0.550000000  0.550000000
 0.350000000  0.650000000  0.750000000
 0.300000000  0.600000000  0.700000000
 0.400000000  0.300000000  0.600000000
 0.450000000  0.350000000  0.650000000
 0.350000000  0.650000000  0.850000000
 0.700000000  0.500000000  0.500000000
 0.350000000  0.850000000  0.650000000
 0.300000000  0.800000000  0.600000000
 0.700000000  0.400000000  0.200000000
 0.700000000  0.200000000  0.800000000
 0.400000000  0.000000000  0.700000000
 0.450000000  0.050000000  0.750000000
 0.450000000  0.150000000  0.950000000
 0.400000000  0.100000000  0.900000000
 0.400000000  0.000000000  0.600000000
 0.450000000  0.050000000  0.650000000
 0.750000000  0.250000000  0.950000000
 0.700000000  0.200000000  0.900000000
 0.700000000  0.200000000  0.000000000
 0.750000000  0.250000000  0.050000000
 0.400000000  0.000000000  0.500000000
 0.450000000  0.050000000  0.550000000
 0.750000000  0.350000000  0.050000000
 0.750000000  0.250000000  0.850000000
 0.700000000  0.300000000  0.000000000
 0.450000000  0.050000000  0.450000000
 0.450000000  0.250000000  0.050000000
 0.400000000  0.200000000  0.000000000
 0.400000000  0.000000000  0.300000000
 0.450000000  0.050000000  0.350000000
 0.750000000  0.350000000  0.150000000
 0.700000000  0.300000000  0.100000000
 0.700000000  0.100000000  0.900000000
 0.750000000  0.150000000  0.950000000
 0.400000000  0.000000000  0.200000000
 0.450000000  0.050000000  0.250000000
 0.450000000  0.250000000  0.150000000
 0.400000000  0.200000000  0.100000000
 0.750000000  0.350000000  0.250000000
 0.400000000  0.000000000  0.400000000
 0.450000000  0.050000000  0.850000000
 0.400000000  0.000000000  0.800000000
 0.400000000  0.100000000  0.800000000
 0.750000000  0.250000000  0.350000000
 0.700000000  0.200000000  0.300000000
 0.400000000  0.100000000  0.400000000
 0.450000000  0.150000000  0.450000000
 0.750000000  0.250000000  0.450000000
 0.700000000  0.200000000  0.400000000
 0.400000000  0.100000000  0.300000000
 0.450000000  0.150000000  0.350000000
 0.450000000  0.150000000  0.650000000
 0.400000000  0.100000000  0.600000000
 0.700000000  0.200000000  0.200000000
 0.750000000  0.250000000  0.250000000
 0.400000000  0.100000000  0.200000000
 0.450000000  0.150000000  0.250000000
 0.750000000  0.250000000  0.550000000
 0.700000000  0.200000000  0.500000000
 0.400000000  0.100000000  0.100000000
 0.450000000  0.150000000  0.850000000
 0.700000000  0.200000000  0.700000000
 0.750000000  0.250000000  0.750000000
 0.450000000  0.050000000  0.950000000
 0.400000000  0.000000000  0.900000000
 0.750000000  0.250000000  0.150000000
 0.700000000  0.300000000  0.200000000
 0.700000000  0.200000000  0.100000000
 0.400000000  0.100000000  0.000000000
 0.700000000  0.200000000  0.600000000
 0.750000000  0.250000000  0.650000000
 0.400000000  0.100000000  0.700000000
 0.450000000  0.150000000  0.750000000
 0.450000000  0.150000000  0.150000000
 0.450000000  0.150000000  0.050000000
 0.400000000  0.000000000  0.100000000
 0.450000000  0.050000000  0.150000000
 0.400000000  0.000000000  0.000000000
 0.450000000  0.250000000  0.550000000
 0.400000000  0.200000000  0.500000000