auto generated
 1.0
   4.5930000   0.0000000   0.0000000
   0.0000000   4.5930000   0.0000000
   0.0000000   0.0000000   2.9590000
 Ti O 
   2  4
Cartesian
 2.296500000  2.296500000  1.479500000
 0.000000000  0.000000000  0.000000000
 0.897196673  3.695803327  1.479500000
 3.695803327  0.897196673  1.479500000
 1.399303327  1.399303327  0.000000000
 3.193696673  3.193696673  0.000000000
