Ti10 O18
1.0
   5.4005349599999999   -0.0010065100000000    1.4198467200000000
   1.6943595600000001    6.4632655999999997    2.4718184800000000
  -0.0160252700000000    0.0088112700000000    8.4864857499999999
Ti O
10 18
direct
   0.7280937700000000    0.3256222800000000    0.4238197600000000 Ti
   0.2719015300000000    0.6743820699999999    0.5761835900000000 Ti
   0.7172335600000000    0.8290614400000000    0.4180048400000000 Ti
   0.2827480400000000    0.1709410900000000    0.5819992800000000 Ti
   0.3475793200000000    0.6560295500000000    0.2038657600000000 Ti
   0.6524107200000000    0.3439766100000000    0.7961369800000000 Ti
   0.3487916400000000    0.1557172700000000    0.2068838500000000 Ti
   0.6512323100000000    0.8442808800000000    0.7931147400000000 Ti
   0.0000114100000000   -0.0000162200000000    0.0000028800000000 Ti
  -0.0000126400000000    0.4999965500000000    0.0000073500000000 Ti
   0.3126501200000000    0.4691887300000000    0.4580562000000000 O
   0.6873480500000000    0.5308148100000000    0.5419460000000000 O
   0.0719382600000000    0.1956956300000000    0.4194470800000000 O
   0.9280555800000000    0.8043099700000000    0.5805446300000000 O
   0.5849996600000000    0.1349582000000000    0.3674202400000000 O
   0.4150014800000000    0.8650432000000000    0.6325809500000000 O
   0.4079183800000000    0.8452029400000000    0.3251411100000000 O
   0.5920837300000000    0.1548021200000000    0.6748541000000000 O
   0.9831771900000000    0.8075593700000000    0.2389857200000000 O
   0.0168187200000000    0.1924314100000000    0.7610225900000001 O
   0.3749365000000000    0.8528037900000000    0.9791776500000000 O
   0.6250771000000001    0.1471957300000000    0.0208180700000000 O
   0.9182614200000000    0.8031265800000000    0.9188150400000000 O
   0.0817402900000000    0.1968727200000000    0.0811800800000000 O
   0.7402945100000000    0.5380185000000000    0.8633722600000000 O
   0.2597045900000000    0.4619803600000000    0.1366239300000000 O
   0.2833200200000000    0.4882684000000000    0.7965140400000000 O
   0.7166867500000000    0.5117380000000000    0.2034792900000000 O
