written by diffit!
1.0
     4.593000     0.000000     0.000000
     0.000000     4.593000     0.000000
     0.000000     0.000000     2.981000
 Ti O
  2 4
Direct
     0.000000     0.000000     0.000000
     0.500000     0.500000     0.500000
     0.250000     0.750000     0.500000
     0.750000     0.250000     0.500000
     0.250000     0.250000     0.000000
     0.750000     0.750000     0.000000

