written by diffit!
1.0
    45.930000     0.000000     0.000000
     0.000000    45.930000     0.000000
     0.000000     0.000000    47.696000
 O Ti
 6220 3200
Cartesian
    11.148250    13.444750    11.490500
    13.444750    11.148250    11.490500
    11.148250    11.148250    10.000000
    13.444750    13.444750    10.000000
    11.148250    13.444750    14.471500
    13.444750    11.148250    14.471500
    11.148250    11.148250    12.981000
    13.444750    13.444750    12.981000
    11.148250    13.444750    17.452500
    13.444750    13.444750    18.943000
    11.148250    11.148250    15.962000
    13.444750    13.444750    15.962000
    11.148250    15.741250    21.924000
    13.444750    13.444750    21.924000
    11.148250    13.444750    20.433500
    11.148250    15.741250    24.905000
    13.444750    13.444750    24.905000
    11.148250    13.444750    23.414500
    13.444750    15.741250    23.414500
    11.148250    15.741250    27.886000
    13.444750    13.444750    27.886000
    11.148250    13.444750    26.395500
    13.444750    15.741250    26.395500
    11.148250    15.741250    30.867000
    13.444750    13.444750    30.867000
    11.148250    13.444750    29.376500
    13.444750    15.741250    29.376500
    11.148250    15.741250    33.848000
    13.444750    13.444750    33.848000
    11.148250    13.444750    32.357500
    13.444750    15.741250    32.357500
    11.148250    15.741250    36.829000
    13.444750    13.444750    36.829000
    11.148250    13.444750    35.338500
    13.444750    15.741250    35.338500
    11.148250    15.741250    39.810000
    13.444750    13.444750    39.810000
    11.148250    13.444750    38.319500
    13.444750    15.741250    38.319500
    11.148250    15.741250    42.791000
    13.444750    13.444750    42.791000
    11.148250    13.444750    41.300500
    13.444750    15.741250    41.300500
    11.148250    15.741250    45.772000
    13.444750    13.444750    45.772000
    11.148250    13.444750    44.281500
    13.444750    15.741250    44.281500
    11.148250    15.741250    48.753000
    13.444750    13.444750    48.753000
    11.148250    13.444750    47.262500
    13.444750    15.741250    47.262500
    11.148250    15.741250    51.734000
    13.444750    13.444750    51.734000
    11.148250    13.444750    50.243500
    13.444750    15.741250    50.243500
    11.148250    15.741250    54.715000
    13.444750    13.444750    54.715000
    11.148250    13.444750    53.224500
    13.444750    15.741250    53.224500
    11.148250    15.741250    57.696000
    13.444750    13.444750    57.696000
    11.148250    13.444750    56.205500
    13.444750    15.741250    56.205500
    11.148250    18.037750    11.490500
    13.444750    15.741250    11.490500
    11.148250    15.741250    10.000000
    13.444750    18.037750    10.000000
    11.148250    18.037750    14.471500
    13.444750    15.741250    14.471500
    11.148250    15.741250    12.981000
    13.444750    18.037750    12.981000
    11.148250    18.037750    17.452500
    13.444750    15.741250    17.452500
    11.148250    15.741250    15.962000
    13.444750    18.037750    15.962000
    11.148250    18.037750    20.433500
    11.148250    15.741250    18.943000
    13.444750    18.037750    18.943000
    13.444750    18.037750    24.905000
    13.444750    18.037750    21.924000
    11.148250    20.334250    27.886000
    13.444750    18.037750    27.886000
    11.148250    18.037750    26.395500
    13.444750    20.334250    26.395500
    11.148250    20.334250    30.867000
    13.444750    18.037750    30.867000
    11.148250    18.037750    29.376500
    13.444750    20.334250    29.376500
    11.148250    20.334250    33.848000
    13.444750    18.037750    33.848000
    11.148250    18.037750    32.357500
    13.444750    20.334250    32.357500
    11.148250    20.334250    36.829000
    13.444750    18.037750    36.829000
    11.148250    18.037750    35.338500
    13.444750    20.334250    35.338500
    11.148250    20.334250    39.810000
    13.444750    18.037750    39.810000
    11.148250    18.037750    38.319500
    13.444750    20.334250    38.319500
    11.148250    20.334250    42.791000
    13.444750    18.037750    42.791000
    11.148250    18.037750    41.300500
    13.444750    20.334250    41.300500
    11.148250    20.334250    45.772000
    13.444750    18.037750    45.772000
    11.148250    18.037750    44.281500
    13.444750    20.334250    44.281500
    11.148250    20.334250    48.753000
    13.444750    18.037750    48.753000
    11.148250    18.037750    47.262500
    13.444750    20.334250    47.262500
    11.148250    20.334250    51.734000
    13.444750    18.037750    51.734000
    11.148250    18.037750    50.243500
    13.444750    20.334250    50.243500
    11.148250    20.334250    54.715000
    13.444750    18.037750    54.715000
    11.148250    18.037750    53.224500
    13.444750    20.334250    53.224500
    11.148250    20.334250    57.696000
    13.444750    18.037750    57.696000
    11.148250    18.037750    56.205500
    13.444750    20.334250    56.205500
    11.148250    22.630750    11.490500
    13.444750    20.334250    11.490500
    11.148250    20.334250    10.000000
    13.444750    22.630750    10.000000
    11.148250    22.630750    14.471500
    13.444750    20.334250    14.471500
    11.148250    20.334250    12.981000
    13.444750    22.630750    12.981000
    11.148250    22.630750    17.452500
    13.444750    20.334250    17.452500
    11.148250    20.334250    15.962000
    13.444750    22.630750    15.962000
    11.148250    22.630750    20.433500
    13.444750    20.334250    20.433500
    11.148250    20.334250    18.943000
    13.444750    22.630750    18.943000
    11.148250    22.630750    23.414500
    13.444750    20.334250    23.414500
    11.148250    20.334250    21.924000
    13.444750    22.630750    21.924000
    11.148250    22.630750    26.395500
    11.148250    20.334250    24.905000
    13.444750    22.630750    24.905000
    11.148250    24.927250    30.867000
    13.444750    22.630750    30.867000
    11.148250    22.630750    29.376500
    11.148250    24.927250    33.848000
    13.444750    22.630750    33.848000
    11.148250    22.630750    32.357500
    13.444750    24.927250    32.357500
    11.148250    24.927250    36.829000
    13.444750    22.630750    36.829000
    11.148250    22.630750    35.338500
    13.444750    24.927250    35.338500
    11.148250    24.927250    39.810000
    13.444750    22.630750    39.810000
    11.148250    22.630750    38.319500
    13.444750    24.927250    38.319500
    11.148250    24.927250    42.791000
    13.444750    22.630750    42.791000
    11.148250    22.630750    41.300500
    13.444750    24.927250    41.300500
    11.148250    24.927250    45.772000
    13.444750    22.630750    45.772000
    11.148250    22.630750    44.281500
    13.444750    24.927250    44.281500
    11.148250    24.927250    48.753000
    13.444750    22.630750    48.753000
    11.148250    22.630750    47.262500
    13.444750    24.927250    47.262500
    11.148250    24.927250    51.734000
    13.444750    22.630750    51.734000
    11.148250    22.630750    50.243500
    13.444750    24.927250    50.243500
    11.148250    24.927250    54.715000
    13.444750    22.630750    54.715000
    11.148250    22.630750    53.224500
    13.444750    24.927250    53.224500
    11.148250    24.927250    57.696000
    13.444750    22.630750    57.696000
    11.148250    22.630750    56.205500
    13.444750    24.927250    56.205500
    11.148250    27.223750    11.490500
    13.444750    24.927250    11.490500
    11.148250    24.927250    10.000000
    13.444750    27.223750    10.000000
    11.148250    27.223750    14.471500
    13.444750    24.927250    14.471500
    11.148250    24.927250    12.981000
    13.444750    27.223750    12.981000
    11.148250    27.223750    17.452500
    13.444750    24.927250    17.452500
    11.148250    24.927250    15.962000
    13.444750    27.223750    15.962000
    11.148250    27.223750    20.433500
    13.444750    24.927250    20.433500
    11.148250    24.927250    18.943000
    13.444750    27.223750    18.943000
    11.148250    27.223750    23.414500
    13.444750    24.927250    23.414500
    11.148250    24.927250    21.924000
    13.444750    27.223750    21.924000
    11.148250    27.223750    26.395500
    13.444750    24.927250    26.395500
    11.148250    24.927250    24.905000
    13.444750    27.223750    24.905000
    11.148250    27.223750    29.376500
    13.444750    24.927250    29.376500
    11.148250    24.927250    27.886000
    13.444750    27.223750    27.886000
    13.444750    27.223750    33.848000
    13.444750    27.223750    30.867000
    11.148250    29.520250    36.829000
    13.444750    27.223750    36.829000
    11.148250    27.223750    35.338500
    13.444750    29.520250    35.338500
    11.148250    29.520250    39.810000
    13.444750    27.223750    39.810000
    11.148250    27.223750    38.319500
    13.444750    29.520250    38.319500
    11.148250    29.520250    42.791000
    13.444750    27.223750    42.791000
    11.148250    27.223750    41.300500
    13.444750    29.520250    41.300500
    11.148250    29.520250    45.772000
    13.444750    27.223750    45.772000
    11.148250    27.223750    44.281500
    13.444750    29.520250    44.281500
    11.148250    29.520250    48.753000
    13.444750    27.223750    48.753000
    11.148250    27.223750    47.262500
    13.444750    29.520250    47.262500
    11.148250    29.520250    51.734000
    13.444750    27.223750    51.734000
    11.148250    27.223750    50.243500
    13.444750    29.520250    50.243500
    11.148250    29.520250    54.715000
    13.444750    27.223750    54.715000
    11.148250    27.223750    53.224500
    13.444750    29.520250    53.224500
    11.148250    29.520250    57.696000
    13.444750    27.223750    57.696000
    11.148250    27.223750    56.205500
    13.444750    29.520250    56.205500
    11.148250    31.816750    11.490500
    13.444750    29.520250    11.490500
    11.148250    29.520250    10.000000
    13.444750    31.816750    10.000000
    11.148250    31.816750    14.471500
    13.444750    29.520250    14.471500
    11.148250    29.520250    12.981000
    13.444750    31.816750    12.981000
    11.148250    31.816750    17.452500
    13.444750    29.520250    17.452500
    11.148250    29.520250    15.962000
    13.444750    31.816750    15.962000
    11.148250    31.816750    20.433500
    13.444750    29.520250    20.433500
    11.148250    29.520250    18.943000
    13.444750    31.816750    18.943000
    11.148250    31.816750    23.414500
    13.444750    29.520250    23.414500
    11.148250    29.520250    21.924000
    13.444750    31.816750    21.924000
    11.148250    31.816750    26.395500
    13.444750    29.520250    26.395500
    11.148250    29.520250    24.905000
    13.444750    31.816750    24.905000
    11.148250    31.816750    29.376500
    13.444750    29.520250    29.376500
    11.148250    29.520250    27.886000
    13.444750    31.816750    27.886000
    11.148250    31.816750    32.357500
    13.444750    29.520250    32.357500
    11.148250    29.520250    30.867000
    13.444750    31.816750    30.867000
    11.148250    31.816750    35.338500
    13.444750    31.816750    36.829000
    11.148250    29.520250    33.848000
    13.444750    31.816750    33.848000
    11.148250    34.113250    39.810000
    13.444750    31.816750    39.810000
    11.148250    31.816750    38.319500
    11.148250    34.113250    42.791000
    13.444750    31.816750    42.791000
    11.148250    31.816750    41.300500
    13.444750    34.113250    41.300500
    11.148250    34.113250    45.772000
    13.444750    31.816750    45.772000
    11.148250    31.816750    44.281500
    13.444750    34.113250    44.281500
    11.148250    34.113250    48.753000
    13.444750    31.816750    48.753000
    11.148250    31.816750    47.262500
    13.444750    34.113250    47.262500
    11.148250    34.113250    51.734000
    13.444750    31.816750    51.734000
    11.148250    31.816750    50.243500
    13.444750    34.113250    50.243500
    11.148250    34.113250    54.715000
    13.444750    31.816750    54.715000
    11.148250    31.816750    53.224500
    13.444750    34.113250    53.224500
    11.148250    34.113250    57.696000
    13.444750    31.816750    57.696000
    11.148250    31.816750    56.205500
    13.444750    34.113250    56.205500
    11.148250    36.409750    11.490500
    13.444750    34.113250    11.490500
    11.148250    34.113250    10.000000
    13.444750    36.409750    10.000000
    11.148250    36.409750    14.471500
    13.444750    34.113250    14.471500
    11.148250    34.113250    12.981000
    13.444750    36.409750    12.981000
    11.148250    36.409750    17.452500
    13.444750    34.113250    17.452500
    11.148250    34.113250    15.962000
    13.444750    36.409750    15.962000
    11.148250    36.409750    20.433500
    13.444750    34.113250    20.433500
    11.148250    34.113250    18.943000
    13.444750    36.409750    18.943000
    11.148250    36.409750    23.414500
    13.444750    34.113250    23.414500
    11.148250    34.113250    21.924000
    13.444750    36.409750    21.924000
    11.148250    36.409750    26.395500
    13.444750    34.113250    26.395500
    11.148250    34.113250    24.905000
    13.444750    36.409750    24.905000
    11.148250    36.409750    29.376500
    13.444750    34.113250    29.376500
    11.148250    34.113250    27.886000
    13.444750    36.409750    27.886000
    11.148250    36.409750    32.357500
    13.444750    34.113250    32.357500
    11.148250    34.113250    30.867000
    13.444750    36.409750    30.867000
    11.148250    36.409750    35.338500
    13.444750    34.113250    35.338500
    11.148250    34.113250    33.848000
    13.444750    36.409750    33.848000
    11.148250    36.409750    38.319500
    11.148250    34.113250    36.829000
    13.444750    36.409750    36.829000
    13.444750    36.409750    42.791000
    13.444750    36.409750    39.810000
    11.148250    38.706250    45.772000
    13.444750    36.409750    45.772000
    11.148250    36.409750    44.281500
    13.444750    38.706250    44.281500
    11.148250    38.706250    48.753000
    13.444750    36.409750    48.753000
    11.148250    36.409750    47.262500
    13.444750    38.706250    47.262500
    11.148250    38.706250    51.734000
    13.444750    36.409750    51.734000
    11.148250    36.409750    50.243500
    13.444750    38.706250    50.243500
    11.148250    38.706250    54.715000
    13.444750    36.409750    54.715000
    11.148250    36.409750    53.224500
    13.444750    38.706250    53.224500
    11.148250    38.706250    57.696000
    13.444750    36.409750    57.696000
    11.148250    36.409750    56.205500
    13.444750    38.706250    56.205500
    11.148250    41.002750    11.490500
    13.444750    38.706250    11.490500
    11.148250    38.706250    10.000000
    13.444750    41.002750    10.000000
    11.148250    41.002750    14.471500
    13.444750    38.706250    14.471500
    11.148250    38.706250    12.981000
    13.444750    41.002750    12.981000
    11.148250    41.002750    17.452500
    13.444750    38.706250    17.452500
    11.148250    38.706250    15.962000
    13.444750    41.002750    15.962000
    11.148250    41.002750    20.433500
    13.444750    38.706250    20.433500
    11.148250    38.706250    18.943000
    13.444750    41.002750    18.943000
    11.148250    41.002750    23.414500
    13.444750    38.706250    23.414500
    11.148250    38.706250    21.924000
    13.444750    41.002750    21.924000
    11.148250    41.002750    26.395500
    13.444750    38.706250    26.395500
    11.148250    38.706250    24.905000
    13.444750    41.002750    24.905000
    11.148250    41.002750    29.376500
    13.444750    38.706250    29.376500
    11.148250    38.706250    27.886000
    13.444750    41.002750    27.886000
    11.148250    41.002750    32.357500
    13.444750    38.706250    32.357500
    11.148250    38.706250    30.867000
    13.444750    41.002750    30.867000
    11.148250    41.002750    35.338500
    13.444750    38.706250    35.338500
    11.148250    38.706250    33.848000
    13.444750    41.002750    33.848000
    11.148250    41.002750    38.319500
    13.444750    38.706250    38.319500
    11.148250    38.706250    36.829000
    13.444750    41.002750    36.829000
    11.148250    41.002750    41.300500
    13.444750    38.706250    41.300500
    11.148250    38.706250    39.810000
    13.444750    41.002750    39.810000
    11.148250    41.002750    44.281500
    13.444750    41.002750    45.772000
    11.148250    38.706250    42.791000
    13.444750    41.002750    42.791000
    11.148250    43.299250    48.753000
    13.444750    41.002750    48.753000
    11.148250    41.002750    47.262500
    11.148250    43.299250    51.734000
    13.444750    41.002750    51.734000
    11.148250    41.002750    50.243500
    13.444750    43.299250    50.243500
    11.148250    43.299250    54.715000
    13.444750    41.002750    54.715000
    11.148250    41.002750    53.224500
    13.444750    43.299250    53.224500
    11.148250    43.299250    57.696000
    13.444750    41.002750    57.696000
    11.148250    41.002750    56.205500
    13.444750    43.299250    56.205500
    11.148250    45.595750    11.490500
    13.444750    43.299250    11.490500
    11.148250    43.299250    10.000000
    13.444750    45.595750    10.000000
    11.148250    45.595750    14.471500
    13.444750    43.299250    14.471500
    11.148250    43.299250    12.981000
    13.444750    45.595750    12.981000
    11.148250    45.595750    17.452500
    13.444750    43.299250    17.452500
    11.148250    43.299250    15.962000
    13.444750    45.595750    15.962000
    11.148250    45.595750    20.433500
    13.444750    43.299250    20.433500
    11.148250    43.299250    18.943000
    13.444750    45.595750    18.943000
    11.148250    45.595750    23.414500
    13.444750    43.299250    23.414500
    11.148250    43.299250    21.924000
    13.444750    45.595750    21.924000
    11.148250    45.595750    26.395500
    13.444750    43.299250    26.395500
    11.148250    43.299250    24.905000
    13.444750    45.595750    24.905000
    11.148250    45.595750    29.376500
    13.444750    43.299250    29.376500
    11.148250    43.299250    27.886000
    13.444750    45.595750    27.886000
    11.148250    45.595750    32.357500
    13.444750    43.299250    32.357500
    11.148250    43.299250    30.867000
    13.444750    45.595750    30.867000
    11.148250    45.595750    35.338500
    13.444750    43.299250    35.338500
    11.148250    43.299250    33.848000
    13.444750    45.595750    33.848000
    11.148250    45.595750    38.319500
    13.444750    43.299250    38.319500
    11.148250    43.299250    36.829000
    13.444750    45.595750    36.829000
    11.148250    45.595750    41.300500
    13.444750    43.299250    41.300500
    11.148250    43.299250    39.810000
    13.444750    45.595750    39.810000
    11.148250    45.595750    44.281500
    13.444750    43.299250    44.281500
    11.148250    43.299250    42.791000
    13.444750    45.595750    42.791000
    11.148250    45.595750    47.262500
    11.148250    43.299250    45.772000
    13.444750    45.595750    45.772000
    13.444750    45.595750    51.734000
    13.444750    45.595750    48.753000
    11.148250    47.892250    54.715000
    13.444750    45.595750    54.715000
    11.148250    45.595750    53.224500
    13.444750    47.892250    53.224500
    11.148250    47.892250    57.696000
    13.444750    45.595750    57.696000
    11.148250    45.595750    56.205500
    13.444750    47.892250    56.205500
    11.148250    50.188750    11.490500
    13.444750    47.892250    11.490500
    11.148250    47.892250    10.000000
    13.444750    50.188750    10.000000
    11.148250    50.188750    14.471500
    13.444750    47.892250    14.471500
    11.148250    47.892250    12.981000
    13.444750    50.188750    12.981000
    11.148250    50.188750    17.452500
    13.444750    47.892250    17.452500
    11.148250    47.892250    15.962000
    13.444750    50.188750    15.962000
    11.148250    50.188750    20.433500
    13.444750    47.892250    20.433500
    11.148250    47.892250    18.943000
    13.444750    50.188750    18.943000
    11.148250    50.188750    23.414500
    13.444750    47.892250    23.414500
    11.148250    47.892250    21.924000
    13.444750    50.188750    21.924000
    11.148250    50.188750    26.395500
    13.444750    47.892250    26.395500
    11.148250    47.892250    24.905000
    13.444750    50.188750    24.905000
    11.148250    50.188750    29.376500
    13.444750    47.892250    29.376500
    11.148250    47.892250    27.886000
    13.444750    50.188750    27.886000
    11.148250    50.188750    32.357500
    13.444750    47.892250    32.357500
    11.148250    47.892250    30.867000
    13.444750    50.188750    30.867000
    11.148250    50.188750    35.338500
    13.444750    47.892250    35.338500
    11.148250    47.892250    33.848000
    13.444750    50.188750    33.848000
    11.148250    50.188750    38.319500
    13.444750    47.892250    38.319500
    11.148250    47.892250    36.829000
    13.444750    50.188750    36.829000
    11.148250    50.188750    41.300500
    13.444750    47.892250    41.300500
    11.148250    47.892250    39.810000
    13.444750    50.188750    39.810000
    11.148250    50.188750    44.281500
    13.444750    47.892250    44.281500
    11.148250    47.892250    42.791000
    13.444750    50.188750    42.791000
    11.148250    50.188750    47.262500
    13.444750    47.892250    47.262500
    11.148250    47.892250    45.772000
    13.444750    50.188750    45.772000
    11.148250    50.188750    50.243500
    13.444750    47.892250    50.243500
    11.148250    47.892250    48.753000
    13.444750    50.188750    48.753000
    11.148250    50.188750    53.224500
    11.148250    47.892250    51.734000
    13.444750    50.188750    51.734000
    11.148250    52.485250    57.696000
    13.444750    50.188750    57.696000
    11.148250    50.188750    56.205500
    11.148250    54.781750    11.490500
    13.444750    52.485250    11.490500
    11.148250    52.485250    10.000000
    13.444750    54.781750    10.000000
    11.148250    54.781750    14.471500
    13.444750    52.485250    14.471500
    11.148250    52.485250    12.981000
    13.444750    54.781750    12.981000
    11.148250    54.781750    17.452500
    13.444750    52.485250    17.452500
    11.148250    52.485250    15.962000
    13.444750    54.781750    15.962000
    11.148250    54.781750    20.433500
    13.444750    52.485250    20.433500
    11.148250    52.485250    18.943000
    13.444750    54.781750    18.943000
    11.148250    54.781750    23.414500
    13.444750    52.485250    23.414500
    11.148250    52.485250    21.924000
    13.444750    54.781750    21.924000
    11.148250    54.781750    26.395500
    13.444750    52.485250    26.395500
    11.148250    52.485250    24.905000
    13.444750    54.781750    24.905000
    11.148250    54.781750    29.376500
    13.444750    52.485250    29.376500
    11.148250    52.485250    27.886000
    13.444750    54.781750    27.886000
    11.148250    54.781750    32.357500
    13.444750    52.485250    32.357500
    11.148250    52.485250    30.867000
    13.444750    54.781750    30.867000
    11.148250    54.781750    35.338500
    13.444750    52.485250    35.338500
    11.148250    52.485250    33.848000
    13.444750    54.781750    33.848000
    11.148250    54.781750    38.319500
    13.444750    52.485250    38.319500
    11.148250    52.485250    36.829000
    13.444750    54.781750    36.829000
    11.148250    54.781750    41.300500
    13.444750    52.485250    41.300500
    11.148250    52.485250    39.810000
    13.444750    54.781750    39.810000
    11.148250    54.781750    44.281500
    13.444750    52.485250    44.281500
    11.148250    52.485250    42.791000
    13.444750    54.781750    42.791000
    11.148250    54.781750    47.262500
    13.444750    52.485250    47.262500
    11.148250    52.485250    45.772000
    13.444750    54.781750    45.772000
    11.148250    54.781750    50.243500
    13.444750    52.485250    50.243500
    11.148250    52.485250    48.753000
    13.444750    54.781750    48.753000
    11.148250    54.781750    53.224500
    13.444750    52.485250    53.224500
    11.148250    52.485250    51.734000
    13.444750    54.781750    51.734000
    11.148250    54.781750    56.205500
    13.444750    52.485250    56.205500
    11.148250    52.485250    54.715000
    13.444750    54.781750    54.715000
    15.741250    13.444750    11.490500
    18.037750    11.148250    11.490500
    15.741250    11.148250    10.000000
    18.037750    13.444750    10.000000
    15.741250    13.444750    14.471500
    18.037750    11.148250    14.471500
    15.741250    11.148250    12.981000
    18.037750    13.444750    12.981000
    18.037750    13.444750    18.943000
    18.037750    13.444750    15.962000
    15.741250    15.741250    21.924000
    18.037750    13.444750    21.924000
    15.741250    13.444750    20.433500
    18.037750    15.741250    20.433500
    15.741250    15.741250    24.905000
    18.037750    13.444750    24.905000
    15.741250    13.444750    23.414500
    18.037750    15.741250    23.414500
    15.741250    15.741250    27.886000
    18.037750    13.444750    27.886000
    15.741250    13.444750    26.395500
    18.037750    15.741250    26.395500
    15.741250    15.741250    30.867000
    18.037750    13.444750    30.867000
    15.741250    13.444750    29.376500
    18.037750    15.741250    29.376500
    15.741250    15.741250    33.848000
    18.037750    13.444750    33.848000
    15.741250    13.444750    32.357500
    18.037750    15.741250    32.357500
    15.741250    15.741250    36.829000
    18.037750    13.444750    36.829000
    15.741250    13.444750    35.338500
    18.037750    15.741250    35.338500
    15.741250    15.741250    39.810000
    18.037750    13.444750    39.810000
    15.741250    13.444750    38.319500
    18.037750    15.741250    38.319500
    15.741250    15.741250    42.791000
    18.037750    13.444750    42.791000
    15.741250    13.444750    41.300500
    18.037750    15.741250    41.300500
    15.741250    15.741250    45.772000
    18.037750    13.444750    45.772000
    15.741250    13.444750    44.281500
    18.037750    15.741250    44.281500
    15.741250    15.741250    48.753000
    18.037750    13.444750    48.753000
    15.741250    13.444750    47.262500
    18.037750    15.741250    47.262500
    15.741250    15.741250    51.734000
    18.037750    13.444750    51.734000
    15.741250    13.444750    50.243500
    18.037750    15.741250    50.243500
    15.741250    15.741250    54.715000
    18.037750    13.444750    54.715000
    15.741250    13.444750    53.224500
    18.037750    15.741250    53.224500
    15.741250    15.741250    57.696000
    18.037750    13.444750    57.696000
    15.741250    13.444750    56.205500
    18.037750    15.741250    56.205500
    15.741250    18.037750    11.490500
    18.037750    15.741250    11.490500
    15.741250    15.741250    10.000000
    18.037750    18.037750    10.000000
    15.741250    18.037750    14.471500
    18.037750    15.741250    14.471500
    15.741250    15.741250    12.981000
    18.037750    18.037750    12.981000
    15.741250    18.037750    17.452500
    18.037750    15.741250    17.452500
    15.741250    15.741250    15.962000
    18.037750    18.037750    15.962000
    15.741250    18.037750    20.433500
    18.037750    18.037750    21.924000
    15.741250    15.741250    18.943000
    18.037750    18.037750    18.943000
    15.741250    20.334250    24.905000
    18.037750    18.037750    24.905000
    15.741250    18.037750    23.414500
    15.741250    20.334250    27.886000
    18.037750    18.037750    27.886000
    15.741250    18.037750    26.395500
    18.037750    20.334250    26.395500
    15.741250    20.334250    30.867000
    18.037750    18.037750    30.867000
    15.741250    18.037750    29.376500
    18.037750    20.334250    29.376500
    15.741250    20.334250    33.848000
    18.037750    18.037750    33.848000
    15.741250    18.037750    32.357500
    18.037750    20.334250    32.357500
    15.741250    20.334250    36.829000
    18.037750    18.037750    36.829000
    15.741250    18.037750    35.338500
    18.037750    20.334250    35.338500
    15.741250    20.334250    39.810000
    18.037750    18.037750    39.810000
    15.741250    18.037750    38.319500
    18.037750    20.334250    38.319500
    15.741250    20.334250    42.791000
    18.037750    18.037750    42.791000
    15.741250    18.037750    41.300500
    18.037750    20.334250    41.300500
    15.741250    20.334250    45.772000
    18.037750    18.037750    45.772000
    15.741250    18.037750    44.281500
    18.037750    20.334250    44.281500
    15.741250    20.334250    48.753000
    18.037750    18.037750    48.753000
    15.741250    18.037750    47.262500
    18.037750    20.334250    47.262500
    15.741250    20.334250    51.734000
    18.037750    18.037750    51.734000
    15.741250    18.037750    50.243500
    18.037750    20.334250    50.243500
    15.741250    20.334250    54.715000
    18.037750    18.037750    54.715000
    15.741250    18.037750    53.224500
    18.037750    20.334250    53.224500
    15.741250    20.334250    57.696000
    18.037750    18.037750    57.696000