written by diffit!
1.0
     4.463095    -0.391079     3.134733
    40.189952    34.010352   -24.253232
     3.977392    58.064568    33.566408
 O Ti
 1152 640
Direct
     0.312650     0.058649     0.057257
     0.687348     0.066352     0.067743
     0.071938     0.024462     0.052431
     0.928056     0.100539     0.072568
     0.585000     0.016870     0.045928
     0.415001     0.108130     0.079073
     0.407918     0.105650     0.040643
     0.592084     0.019350     0.084357
     0.983177     0.100945     0.029873
     0.016819     0.024054     0.095128
     0.374937     0.106601     0.122397
     0.625077     0.018399     0.002602
     0.918261     0.100391     0.114852
     0.081740     0.024609     0.010148
     0.740295     0.067252     0.107922
     0.259705     0.057748     0.017078
     0.283320     0.061033     0.099564
     0.716687     0.063967     0.025435
     0.312650     0.058649     0.182257
     0.687348     0.066352     0.192743
     0.071938     0.024462     0.177431
     0.928056     0.100539     0.197568
     0.585000     0.016870     0.170928
     0.415001     0.108130     0.204073
     0.407918     0.105650     0.165643
     0.592084     0.019350     0.209357
     0.983177     0.100945     0.154873
     0.016819     0.024054     0.220128
     0.374937     0.106601     0.247397
     0.625077     0.018399     0.127602
     0.918261     0.100391     0.239852
     0.081740     0.024609     0.135148
     0.740295     0.067252     0.232922
     0.259705     0.057748     0.142078
     0.283320     0.061033     0.224564
     0.716687     0.063967     0.150435
     0.312650     0.058649     0.307257
     0.687348     0.066352     0.317743
     0.071938     0.024462     0.302431
     0.928056     0.100539     0.322568
     0.585000     0.016870     0.295928
     0.415001     0.108130     0.329073
     0.407918     0.105650     0.290643
     0.592084     0.019350     0.334357
     0.983177     0.100945     0.279873
     0.016819     0.024054     0.345128
     0.374937     0.106601     0.372397
     0.625077     0.018399     0.252602
     0.918261     0.100391     0.364852
     0.081740     0.024609     0.260147
     0.740295     0.067252     0.357922
     0.259705     0.057748     0.267078
     0.283320     0.061033     0.349564
     0.716687     0.063967     0.275435
     0.312650     0.058649     0.432257
     0.687348     0.066352     0.442743
     0.071938     0.024462     0.427431
     0.928056     0.100539     0.447568
     0.585000     0.016870     0.420928
     0.415001     0.108130     0.454073
     0.407918     0.105650     0.415643
     0.592084     0.019350     0.459357
     0.983177     0.100945     0.404873
     0.016819     0.024054     0.470128
     0.374937     0.106601     0.497397
     0.625077     0.018399     0.377602
     0.918261     0.100391     0.489852
     0.081740     0.024609     0.385147
     0.740295     0.067252     0.482922
     0.259705     0.057748     0.392078
     0.283320     0.061033     0.474564
     0.716687     0.063967     0.400435
     0.312650     0.058649     0.557257
     0.687348     0.066352     0.567743
     0.071938     0.024462     0.552431
     0.928056     0.100539     0.572568
     0.585000     0.016870     0.545928
     0.415001     0.108130     0.579073
     0.407918     0.105650     0.540643
     0.592084     0.019350     0.584357
     0.983177     0.100945     0.529873
     0.016819     0.024054     0.595128
     0.374937     0.106601     0.622397
     0.625077     0.018399     0.502602
     0.918261     0.100391     0.614852
     0.081740     0.024609     0.510147
     0.740295     0.067252     0.607922
     0.259705     0.057748     0.517078
     0.283320     0.061033     0.599564
     0.716687     0.063967     0.525435
     0.312650     0.058649     0.682257
     0.687348     0.066352     0.692743
     0.071938     0.024462     0.677431
     0.928056     0.100539     0.697568
     0.585000     0.016870     0.670928
     0.415001     0.108130     0.704073
     0.407918     0.105650     0.665643
     0.592084     0.019350     0.709357
     0.983177     0.100945     0.654873
     0.016819     0.024054     0.720128
     0.374937     0.106601     0.747397
     0.625077     0.018399     0.627602
     0.918261     0.100391     0.739852
     0.081740     0.024609     0.635147
     0.740295     0.067252     0.732922
     0.259705     0.057748     0.642078
     0.283320     0.061033     0.724564
     0.716687     0.063967     0.650435
     0.312650     0.058649     0.807257
     0.687348     0.066352     0.817743
     0.071938     0.024462     0.802431
     0.928056     0.100539     0.822568
     0.585000     0.016870     0.795928
     0.415001     0.108130     0.829073
     0.407918     0.105650     0.790643
     0.592084     0.019350     0.834357
     0.983177     0.100945     0.779873
     0.016819     0.024054     0.845128
     0.374937     0.106601     0.872397
     0.625077     0.018399     0.752602
     0.918261     0.100391     0.864852
     0.081740     0.024609     0.760147
     0.740295     0.067252     0.857922
     0.259705     0.057748     0.767078
     0.283320     0.061033     0.849564
     0.716687     0.063967     0.775435
     0.312650     0.058649     0.932257
     0.687348     0.066352     0.942743
     0.071938     0.024462     0.927431
     0.928056     0.100539     0.947568
     0.585000     0.016870     0.920928
     0.415001     0.108130     0.954073
     0.407918     0.105650     0.915643
     0.592084     0.019350     0.959357
     0.983177     0.100945     0.904873
     0.016819     0.024054     0.970128
     0.374937     0.106601     0.997397
     0.625077     0.018399     0.877602
     0.918261     0.100391     0.989852
     0.081740     0.024609     0.885147
     0.740295     0.067252     0.982922
     0.259705     0.057748     0.892078
     0.283320     0.061033     0.974564
     0.716687     0.063967     0.900435
     0.312650     0.183649     0.057257
     0.687348     0.191352     0.067743
     0.071938     0.149462     0.052431
     0.928056     0.225539     0.072568
     0.585000     0.141870     0.045928
     0.415001     0.233130     0.079073
     0.407918     0.230650     0.040643
     0.592084     0.144350     0.084357
     0.983177     0.225945     0.029873
     0.016819     0.149054     0.095128
     0.374937     0.231600     0.122397
     0.625077     0.143400     0.002602
     0.918261     0.225391     0.114852
     0.081740     0.149609     0.010148
     0.740295     0.192252     0.107922
     0.259705     0.182748     0.017078
     0.283320     0.186033     0.099564
     0.716687     0.188967     0.025435
     0.312650     0.183649     0.182257
     0.687348     0.191352     0.192743
     0.071938     0.149462     0.177431
     0.928056     0.225539     0.197568
     0.585000     0.141870     0.170928
     0.415001     0.233130     0.204073
     0.407918     0.230650     0.165643
     0.592084     0.144350     0.209357
     0.983177     0.225945     0.154873
     0.016819     0.149054     0.220128
     0.374937     0.231600     0.247397
     0.625077     0.143400     0.127602
     0.918261     0.225391     0.239852
     0.081740     0.149609     0.135148
     0.740295     0.192252     0.232922
     0.259705     0.182748     0.142078
     0.283320     0.186033     0.224564
     0.716687     0.188967     0.150435
     0.312650     0.183649     0.307257
     0.687348     0.191352     0.317743
     0.071938     0.149462     0.302431
     0.928056     0.225539     0.322568
     0.585000     0.141870     0.295928
     0.415001     0.233130     0.329073
     0.407918     0.230650     0.290643
     0.592084     0.144350     0.334357
     0.983177     0.225945     0.279873
     0.016819     0.149054     0.345128
     0.374937     0.231600     0.372397
     0.625077     0.143400     0.252602
     0.918261     0.225391     0.364852
     0.081740     0.149609     0.260147
     0.740295     0.192252     0.357922
     0.259705     0.182748     0.267078
     0.283320     0.186033     0.349564
     0.716687     0.188967     0.275435
     0.312650     0.183649     0.432257
     0.687348     0.191352     0.442743
     0.071938     0.149462     0.427431
     0.928056     0.225539     0.447568
     0.585000     0.141870     0.420928
     0.415001     0.233130     0.454073
     0.407918     0.230650     0.415643
     0.592084     0.144350     0.459357
     0.983177     0.225945     0.404873
     0.016819     0.149054     0.470128
     0.374937     0.231600     0.497397
     0.625077     0.143400     0.377602
     0.918261     0.225391     0.489852
     0.081740     0.149609     0.385147
     0.740295     0.192252     0.482922
     0.259705     0.182748     0.392078
     0.283320     0.186033     0.474564
     0.716687     0.188967     0.400435
     0.312650     0.183649     0.557257
     0.687348     0.191352     0.567743
     0.071938     0.149462     0.552431
     0.928056     0.225539     0.572568
     0.585000     0.141870     0.545928
     0.415001     0.233130     0.579073
     0.407918     0.230650     0.540643
     0.592084     0.144350     0.584357
     0.983177     0.225945     0.529873
     0.016819     0.149054     0.595128
     0.374937     0.231600     0.622397
     0.625077     0.143400     0.502602
     0.918261     0.225391     0.614852
     0.081740     0.149609     0.510147
     0.740295     0.192252     0.607922
     0.259705     0.182748     0.517078
     0.283320     0.186033     0.599564
     0.716687     0.188967     0.525435
     0.312650     0.183649     0.682257
     0.687348     0.191352     0.692743
     0.071938     0.149462     0.677431
     0.928056     0.225539     0.697568
     0.585000     0.141870     0.670928
     0.415001     0.233130     0.704073
     0.407918     0.230650     0.665643
     0.592084     0.144350     0.709357
     0.983177     0.225945     0.654873
     0.016819     0.149054     0.720128
     0.374937     0.231600     0.747397
     0.625077     0.143400     0.627602
     0.918261     0.225391     0.739852
     0.081740     0.149609     0.635147
     0.740295     0.192252     0.732922
     0.259705     0.182748     0.642078
     0.283320     0.186033     0.724564
     0.716687     0.188967     0.650435
     0.312650     0.183649     0.807257
     0.687348     0.191352     0.817743
     0.071938     0.149462     0.802431
     0.928056     0.225539     0.822568
     0.585000     0.141870     0.795928
     0.415001     0.233130     0.829073
     0.407918     0.230650     0.790643
     0.592084     0.144350     0.834357
     0.983177     0.225945     0.779873
     0.016819     0.149054     0.845128
     0.374937     0.231600     0.872397
     0.625077     0.143400     0.752602
     0.918261     0.225391     0.864852
     0.081740     0.149609     0.760147
     0.740295     0.192252     0.857922
     0.259705     0.182748     0.767078
     0.283320     0.186033     0.849564
     0.716687     0.188967     0.775435
     0.312650     0.183649     0.932257
     0.687348     0.191352     0.942743
     0.071938     0.149462     0.927431
     0.928056     0.225539     0.947568
     0.585000     0.141870     0.920928
     0.415001     0.233130     0.954073
     0.407918     0.230650     0.915643
     0.592084     0.144350     0.959357
     0.983177     0.225945     0.904873
     0.016819     0.149054     0.970128
     0.374937     0.231600     0.997397
     0.625077     0.143400     0.877602
     0.918261     0.225391     0.989852
     0.081740     0.149609     0.885147
     0.740295     0.192252     0.982922
     0.259705     0.182748     0.892078
     0.283320     0.186033     0.974564
     0.716687     0.188967     0.900435
     0.312650     0.308649     0.057257
     0.687348     0.316352     0.067743
     0.071938     0.274462     0.052431
     0.928056     0.350539     0.072568
     0.585000     0.266870     0.045928
     0.415001     0.358130     0.079073
     0.407918     0.355650     0.040643
     0.592084     0.269350     0.084357
     0.983177     0.350945     0.029873
     0.016819     0.274054     0.095128
     0.374937     0.356600     0.122397
     0.625077     0.268400     0.002602
     0.918261     0.350391     0.114852
     0.081740     0.274609     0.010148
     0.740295     0.317252     0.107922
     0.259705     0.307748     0.017078
     0.283320     0.311034     0.099564
     0.716687     0.313967     0.025435
     0.312650     0.308649     0.182257
     0.687348     0.316352     0.192743
     0.071938     0.274462     0.177431
     0.928056     0.350539     0.197568
     0.585000     0.266870     0.170928
     0.415001     0.358130     0.204073
     0.407918     0.355650     0.165643
     0.592084     0.269350     0.209357
     0.983177     0.350945     0.154873
     0.016819     0.274054     0.220128
     0.374937     0.356600     0.247397
     0.625077     0.268400     0.127602
     0.918261     0.350391     0.239852
     0.081740     0.274609     0.135148
     0.740295     0.317252     0.232922
     0.259705     0.307748     0.142078
     0.283320     0.311034     0.224564
     0.716687     0.313967     0.150435
     0.312650     0.308649     0.307257
     0.687348     0.316352     0.317743
     0.071938     0.274462     0.302431
     0.928056     0.350539     0.322568
     0.585000     0.266870     0.295928
     0.415001     0.358130     0.329073
     0.407918     0.355650     0.290643
     0.592084     0.269350     0.334357
     0.983177     0.350945     0.279873
     0.016819     0.274054     0.345128
     0.374937     0.356600     0.372397
     0.625077     0.268400     0.252602
     0.918261     0.350391     0.364852
     0.081740     0.274609     0.260147
     0.740295     0.317252     0.357922
     0.259705     0.307748     0.267078
     0.283320     0.311034     0.349564
     0.716687     0.313967     0.275435
     0.312650     0.308649     0.432257
     0.687348     0.316352     0.442743
     0.071938     0.274462     0.427431
     0.928056     0.350539     0.447568
     0.585000     0.266870     0.420928
     0.415001     0.358130     0.454073
     0.407918     0.355650     0.415643
     0.592084     0.269350     0.459357
     0.983177     0.350945     0.404873
     0.016819     0.274054     0.470128
     0.374937     0.356600     0.497397
     0.625077     0.268400     0.377602
     0.918261     0.350391     0.489852
     0.081740     0.274609     0.385147
     0.740295     0.317252     0.482922
     0.259705     0.307748     0.392078
     0.283320     0.311034     0.474564
     0.716687     0.313967     0.400435
     0.312650     0.308649     0.557257
     0.687348     0.316352     0.567743
     0.071938     0.274462     0.552431
     0.928056     0.350539     0.572568
     0.585000     0.266870     0.545928
     0.415001     0.358130     0.579073
     0.407918     0.355650     0.540643
     0.592084     0.269350     0.584357
     0.983177     0.350945     0.529873
     0.016819     0.274054     0.595128
     0.374937     0.356600     0.622397
     0.625077     0.268400     0.502602
     0.918261     0.350391     0.614852
     0.081740     0.274609     0.510147
     0.740295     0.317252     0.607922
     0.259705     0.307748     0.517078
     0.283320     0.311034     0.599564
     0.716687     0.313967     0.525435
     0.312650     0.308649     0.682257
     0.687348     0.316352     0.692743
     0.071938     0.274462     0.677431
     0.928056     0.350539     0.697568
     0.585000     0.266870     0.670928
     0.415001     0.358130     0.704073
     0.407918     0.355650     0.665643
     0.592084     0.269350     0.709357
     0.983177     0.350945     0.654873
     0.016819     0.274054     0.720128
     0.374937     0.356600     0.747397
     0.625077     0.268400     0.627602
     0.918261     0.350391     0.739852
     0.081740     0.274609     0.635147
     0.740295     0.317252     0.732922
     0.259705     0.307748     0.642078
     0.283320     0.311034     0.724564
     0.716687     0.313967     0.650435
     0.312650     0.308649     0.807257
     0.687348     0.316352     0.817743
     0.071938     0.274462     0.802431
     0.928056     0.350539     0.822568
     0.585000     0.266870     0.795928
     0.415001     0.358130     0.829073
     0.407918     0.355650     0.790643
     0.592084     0.269350     0.834357
     0.983177     0.350945     0.779873
     0.016819     0.274054     0.845128
     0.374937     0.356600     0.872397
     0.625077     0.268400     0.752602
     0.918261     0.350391     0.864852
     0.081740     0.274609     0.760147
     0.740295     0.317252     0.857922
     0.259705     0.307748     0.767078
     0.283320     0.311034     0.849564
     0.716687     0.313967     0.775435
     0.312650     0.308649     0.932257
     0.687348     0.316352     0.942743
     0.071938     0.274462     0.927431
     0.928056     0.350539     0.947568
     0.585000     0.266870     0.920928
     0.415001     0.358130     0.954073
     0.407918     0.355650     0.915643
     0.592084     0.269350     0.959357
     0.983177     0.350945     0.904873
     0.016819     0.274054     0.970128
     0.374937     0.356600     0.997397
     0.625077     0.268400     0.877602
     0.918261     0.350391     0.989852
     0.081740     0.274609     0.885147
     0.740295     0.317252     0.982922
     0.259705     0.307748     0.892078
     0.283320     0.311034     0.974564
     0.716687     0.313967     0.900435
     0.312650     0.433649     0.057257
     0.687348     0.441352     0.067743
     0.071938     0.399462     0.052431
     0.928056     0.475539     0.072568
     0.585000     0.391870     0.045928
     0.415001     0.483130     0.079073
     0.407918     0.480650     0.040643
     0.592084     0.394350     0.084357
     0.983177     0.475945     0.029873
     0.016819     0.399054     0.095128
     0.374937     0.481600     0.122397
     0.625077     0.393400     0.002602
     0.918261     0.475391     0.114852
     0.081740     0.399609     0.010148
     0.740295     0.442252     0.107922
     0.259705     0.432748     0.017078
     0.283320     0.436034     0.099564
     0.716687     0.438967     0.025435
     0.312650     0.433649     0.182257
     0.687348     0.441352     0.192743
     0.071938     0.399462     0.177431
     0.928056     0.475539     0.197568
     0.585000     0.391870     0.170928
     0.415001     0.483130     0.204073
     0.407918     0.480650     0.165643
     0.592084     0.394350     0.209357
     0.983177     0.475945     0.154873
     0.016819     0.399054     0.220128
     0.374937     0.481600     0.247397
     0.625077     0.393400     0.127602
     0.918261     0.475391     0.239852
     0.081740     0.399609     0.135148
     0.740295     0.442252     0.232922
     0.259705     0.432748     0.142078
     0.283320     0.436034     0.224564
     0.716687     0.438967     0.150435
     0.312650     0.433649     0.307257
     0.687348     0.441352     0.317743
     0.071938     0.399462     0.302431
     0.928056     0.475539     0.322568
     0.585000     0.391870     0.295928
     0.415001     0.483130     0.329073
     0.407918     0.480650     0.290643
     0.592084     0.394350     0.334357
     0.983177     0.475945     0.279873
     0.016819     0.399054     0.345128
     0.374937     0.481600     0.372397
     0.625077     0.393400     0.252602
     0.918261     0.475391     0.364852
     0.081740     0.399609     0.260147
     0.740295     0.442252     0.357922
     0.259705     0.432748     0.267078
     0.283320     0.436034     0.349564
     0.716687     0.438967     0.275435
     0.312650     0.433649     0.432257
     0.687348     0.441352     0.442743
     0.071938     0.399462     0.427431
     0.928056     0.475539     0.447568
     0.585000     0.391870     0.420928
     0.415001     0.483130     0.454073
     0.407918     0.480650     0.415643
     0.592084     0.394350     0.459357
     0.983177     0.475945     0.404873
     0.016819     0.399054     0.470128
     0.374937     0.481600     0.497397
     0.625077     0.393400     0.377602
     0.918261     0.475391     0.489852
     0.081740     0.399609     0.385147
     0.740295     0.442252     0.482922
     0.259705     0.432748     0.392078
     0.283320     0.436034     0.474564
     0.716687     0.438967     0.400435
     0.312650     0.433649     0.557257
     0.687348     0.441352     0.567743
     0.071938     0.399462     0.552431
     0.928056     0.475539     0.572568
     0.585000     0.391870     0.545928
     0.415001     0.483130     0.579073
     0.407918     0.480650     0.540643
     0.592084     0.394350     0.584357
     0.983177     0.475945     0.529873
     0.016819     0.399054     0.595128
     0.374937     0.481600     0.622397
     0.625077     0.393400     0.502602
     0.918261     0.475391     0.614852
     0.081740     0.399609     0.510147
     0.740295     0.442252     0.607922
     0.259705     0.432748     0.517078
     0.283320     0.436034     0.599564
     0.716687     0.438967     0.525435
     0.312650     0.433649     0.682257
     0.687348     0.441352     0.692743
     0.071938     0.399462     0.677431
     0.928056     0.475539     0.697568
     0.585000     0.391870     0.670928
     0.415001     0.483130     0.704073
     0.407918     0.480650     0.665643
     0.592084     0.394350     0.709357
     0.983177     0.475945     0.654873
     0.016819     0.399054     0.720128
     0.374937     0.481600     0.747397
     0.625077     0.393400     0.627602
     0.918261     0.475391     0.739852
     0.081740     0.399609     0.635147
     0.740295     0.442252     0.732922
     0.259705     0.432748     0.642078
     0.283320     0.436034     0.724564
     0.716687     0.438967     0.650435
     0.312650     0.433649     0.807257
     0.687348     0.441352     0.817743
     0.071938     0.399462     0.802431
     0.928056     0.475539     0.822568
     0.585000     0.391870     0.795928
     0.415001     0.483130     0.829073
     0.407918     0.480650     0.790643
     0.592084     0.394350     0.834357
     0.983177     0.475945     0.779873
     0.016819     0.399054     0.845128
     0.374937     0.481600     0.872397
     0.625077     0.393400     0.752602
     0.918261     0.475391     0.864852
     0.081740     0.399609     0.760147
     0.740295     0.442252     0.857922
     0.259705     0.432748     0.767078
     0.283320     0.436034     0.849564
     0.716687     0.438967     0.775435
     0.312650     0.433649     0.932257
     0.687348     0.441352     0.942743
     0.071938     0.399462     0.927431
     0.928056     0.475539     0.947568
     0.585000     0.391870     0.920928
     0.415001     0.483130     0.954073
     0.407918     0.480650     0.915643
     0.592084     0.394350     0.959357
     0.983177     0.475945     0.904873
     0.016819     0.399054     0.970128
     0.374937     0.481600     0.997397
     0.625077     0.393400     0.877602
     0.918261     0.475391     0.989852
     0.081740     0.399609     0.885147
     0.740295     0.442252     0.982922
     0.259705     0.432748     0.892078
     0.283320     0.436034     0.974564
     0.716687     0.438967     0.900435
     0.312650     0.558649     0.057257
     0.687348     0.566352     0.067743
     0.071938     0.524462     0.052431
     0.928056     0.600539     0.072568
     0.585000     0.516870     0.045928
     0.415001     0.608130     0.079073
     0.407918     0.605650     0.040643
     0.592084     0.519350     0.084357
     0.983177     0.600945     0.029873
     0.016819     0.524054     0.095128
     0.374937     0.606600     0.122397
     0.625077     0.518400     0.002602
     0.918261     0.600391     0.114852
     0.081740     0.524609     0.010148
     0.740295     0.567252     0.107922
     0.259705     0.557747     0.017078
     0.283320     0.561033     0.099564
     0.716687     0.563967     0.025435
     0.312650     0.558649     0.182257
     0.687348     0.566352     0.192743
     0.071938     0.524462     0.177431
     0.928056     0.600539     0.197568
     0.585000     0.516870     0.170928
     0.415001     0.608130     0.204073
     0.407918     0.605650     0.165643
     0.592084     0.519350     0.209357
     0.983177     0.600945     0.154873
     0.016819     0.524054     0.220128
     0.374937     0.606600     0.247397
     0.625077     0.518400     0.127602
     0.918261     0.600391     0.239852
     0.081740     0.524609     0.135148
     0.740295     0.567252     0.232922
     0.259705     0.557747     0.142078
     0.283320     0.561033     0.224564
     0.716687     0.563967     0.150435
     0.312650     0.558649     0.307257
     0.687348     0.566352     0.317743
     0.071938     0.524462     0.302431
     0.928056     0.600539     0.322568
     0.585000     0.516870     0.295928
     0.415001     0.608130     0.329073
     0.407918     0.605650     0.290643
     0.592084     0.519350     0.334357
     0.983177     0.600945     0.279873
     0.016819     0.524054     0.345128
     0.374937     0.606600     0.372397
     0.625077     0.518400     0.252602
     0.918261     0.600391     0.364852
     0.081740     0.524609     0.260147
     0.740295     0.567252     0.357922
     0.259705     0.557747     0.267078
     0.283320     0.561033     0.349564
     0.716687     0.563967     0.275435
     0.312650     0.558649     0.432257
     0.687348     0.566352     0.442743
     0.071938     0.524462     0.427431
     0.928056     0.600539     0.447568
     0.585000     0.516870     0.420928
     0.415001     0.608130     0.454073
     0.407918     0.605650     0.415643
     0.592084     0.519350     0.459357
     0.983177     0.600945     0.404873
     0.016819     0.524054     0.470128
     0.374937     0.606600     0.497397
     0.625077     0.518400     0.377602
     0.918261     0.600391     0.489852
     0.081740     0.524609     0.385147
     0.740295     0.567252     0.482922
     0.259705     0.557747     0.392078
     0.283320     0.561033     0.474564
     0.716687     0.563967     0.400435
     0.312650     0.558649     0.557257
     0.687348     0.566352     0.567743
     0.071938     0.524462     0.552431
     0.928056     0.600539     0.572568
     0.585000     0.516870     0.545928
     0.415001     0.608130     0.579073
     0.407918     0.605650     0.540643
     0.592084     0.519350     0.584357
     0.983177     0.600945     0.529873
     0.016819     0.524054     0.595128
     0.374937     0.606600     0.622397
     0.625077     0.518400     0.502602
     0.918261     0.600391     0.614852
     0.081740     0.524609     0.510147
     0.740295     0.567252     0.607922
     0.259705     0.557747     0.517078
     0.283320     0.561033     0.599564
     0.716687     0.563967     0.525435
     0.312650     0.558649     0.682257
     0.687348     0.566352     0.692743
     0.071938     0.524462     0.677431
     0.928056     0.600539     0.697568
     0.585000     0.516870     0.670928
     0.415001     0.608130     0.704073
     0.407918     0.605650     0.665643
     0.592084     0.519350     0.709357
     0.983177     0.600945     0.654873
     0.016819     0.524054     0.720128
     0.374937     0.606600     0.747397
     0.625077     0.518400     0.627602
     0.918261     0.600391     0.739852
     0.081740     0.524609     0.635147
     0.740295     0.567252     0.732922
     0.259705     0.557747     0.642078
     0.283320     0.561033     0.724564
     0.716687     0.563967     0.650435
     0.312650     0.558649     0.807257
     0.687348     0.566352     0.817743
     0.071938     0.524462     0.802431
     0.928056     0.600539     0.822568
     0.585000     0.516870     0.795928
     0.415001     0.608130     0.829073
     0.407918     0.605650     0.790643
     0.592084     0.519350     0.834357
     0.983177     0.600945     0.779873
     0.016819     0.524054     0.845128
     0.374937     0.606600     0.872397
     0.625077     0.518400     0.752602
     0.918261     0.600391     0.864852
     0.081740     0.524609     0.760147
     0.740295     0.567252     0.857922
     0.259705     0.557747     0.767078
     0.283320     0.561033     0.849564
     0.716687     0.563967     0.775435
     0.312650     0.558649     0.932257
     0.687348     0.566352     0.942743
     0.071938     0.524462     0.927431
     0.928056     0.600539     0.947568
     0.585000     0.516870     0.920928
     0.415001     0.608130     0.954073
     0.407918     0.605650     0.915643
     0.592084     0.519350     0.959357
     0.983177     0.600945     0.904873
     0.016819     0.524054     0.970128
     0.374937     0.606600     0.997397
     0.625077     0.518400     0.877602
     0.918261     0.600391     0.989852
     0.081740     0.524609     0.885147
     0.740295     0.567252     0.982922
     0.259705     0.557747     0.892078
     0.283320     0.561033     0.974564
     0.716687     0.563967     0.900435
     0.312650     0.683649     0.057257
     0.687348     0.691352     0.067743
     0.071938     0.649462     0.052431
     0.928056     0.725539     0.072568
     0.585000     0.641870     0.045928
     0.415001     0.733130     0.079073
     0.407918     0.730650     0.040643
     0.592084     0.644350     0.084357
     0.983177     0.725945     0.029873
     0.016819     0.649054     0.095128
     0.374937     0.731600     0.122397
     0.625077     0.643400     0.002602
     0.918261     0.725391     0.114852
     0.081740     0.649609     0.010148
     0.740295     0.692252     0.107922
     0.259705     0.682747     0.017078
     0.283320     0.686033     0.099564
     0.716687     0.688967     0.025435
     0.312650     0.683649     0.182257
     0.687348     0.691352     0.192743
     0.071938     0.649462     0.177431
     0.928056     0.725539     0.197568
     0.585000     0.641870     0.170928
     0.415001     0.733130     0.204073
     0.407918     0.730650     0.165643