written by diffit!
1.0
    45.930000     0.000000     0.000000
     0.000000    45.930000     0.000000
     0.000000     0.000000    47.696000
 O Ti
 6400 3200
Direct
     0.025000     0.075000     0.031250
     0.075000     0.025000     0.031250
     0.025000     0.025000     0.000000
     0.075000     0.075000     0.000000
     0.025000     0.075000     0.093750
     0.075000     0.025000     0.093750
     0.025000     0.025000     0.062500
     0.075000     0.075000     0.062500
     0.025000     0.075000     0.156250
     0.075000     0.025000     0.156250
     0.025000     0.025000     0.125000
     0.075000     0.075000     0.125000
     0.025000     0.075000     0.218750
     0.075000     0.025000     0.218750
     0.025000     0.025000     0.187500
     0.075000     0.075000     0.187500
     0.025000     0.075000     0.281250
     0.075000     0.025000     0.281250
     0.025000     0.025000     0.250000
     0.075000     0.075000     0.250000
     0.025000     0.075000     0.343750
     0.075000     0.025000     0.343750
     0.025000     0.025000     0.312500
     0.075000     0.075000     0.312500
     0.025000     0.075000     0.406250
     0.075000     0.025000     0.406250
     0.025000     0.025000     0.375000
     0.075000     0.075000     0.375000
     0.025000     0.075000     0.468750
     0.075000     0.025000     0.468750
     0.025000     0.025000     0.437500
     0.075000     0.075000     0.437500
     0.025000     0.075000     0.531250
     0.075000     0.025000     0.531250
     0.025000     0.025000     0.500000
     0.075000     0.075000     0.500000
     0.025000     0.075000     0.593750
     0.075000     0.025000     0.593750
     0.025000     0.025000     0.562500
     0.075000     0.075000     0.562500
     0.025000     0.075000     0.656250
     0.075000     0.025000     0.656250
     0.025000     0.025000     0.625000
     0.075000     0.075000     0.625000
     0.025000     0.075000     0.718750
     0.075000     0.025000     0.718750
     0.025000     0.025000     0.687500
     0.075000     0.075000     0.687500
     0.025000     0.075000     0.781250
     0.075000     0.025000     0.781250
     0.025000     0.025000     0.750000
     0.075000     0.075000     0.750000
     0.025000     0.075000     0.843750
     0.075000     0.025000     0.843750
     0.025000     0.025000     0.812500
     0.075000     0.075000     0.812500
     0.025000     0.075000     0.906250
     0.075000     0.025000     0.906250
     0.025000     0.025000     0.875000
     0.075000     0.075000     0.875000
     0.025000     0.075000     0.968750
     0.075000     0.025000     0.968750
     0.025000     0.025000     0.937500
     0.075000     0.075000     0.937500
     0.025000     0.175000     0.031250
     0.075000     0.125000     0.031250
     0.025000     0.125000     0.000000
     0.075000     0.175000     0.000000
     0.025000     0.175000     0.093750
     0.075000     0.125000     0.093750
     0.025000     0.125000     0.062500
     0.075000     0.175000     0.062500
     0.025000     0.175000     0.156250
     0.075000     0.125000     0.156250
     0.025000     0.125000     0.125000
     0.075000     0.175000     0.125000
     0.025000     0.175000     0.218750
     0.075000     0.125000     0.218750
     0.025000     0.125000     0.187500
     0.075000     0.175000     0.187500
     0.025000     0.175000     0.281250
     0.075000     0.125000     0.281250
     0.025000     0.125000     0.250000
     0.075000     0.175000     0.250000
     0.025000     0.175000     0.343750
     0.075000     0.125000     0.343750
     0.025000     0.125000     0.312500
     0.075000     0.175000     0.312500
     0.025000     0.175000     0.406250
     0.075000     0.125000     0.406250
     0.025000     0.125000     0.375000
     0.075000     0.175000     0.375000
     0.025000     0.175000     0.468750
     0.075000     0.125000     0.468750
     0.025000     0.125000     0.437500
     0.075000     0.175000     0.437500
     0.025000     0.175000     0.531250
     0.075000     0.125000     0.531250
     0.025000     0.125000     0.500000
     0.075000     0.175000     0.500000
     0.025000     0.175000     0.593750
     0.075000     0.125000     0.593750
     0.025000     0.125000     0.562500
     0.075000     0.175000     0.562500
     0.025000     0.175000     0.656250
     0.075000     0.125000     0.656250
     0.025000     0.125000     0.625000
     0.075000     0.175000     0.625000
     0.025000     0.175000     0.718750
     0.075000     0.125000     0.718750
     0.025000     0.125000     0.687500
     0.075000     0.175000     0.687500
     0.025000     0.175000     0.781250
     0.075000     0.125000     0.781250
     0.025000     0.125000     0.750000
     0.075000     0.175000     0.750000
     0.025000     0.175000     0.843750
     0.075000     0.125000     0.843750
     0.025000     0.125000     0.812500
     0.075000     0.175000     0.812500
     0.025000     0.175000     0.906250
     0.075000     0.125000     0.906250
     0.025000     0.125000     0.875000
     0.075000     0.175000     0.875000
     0.025000     0.175000     0.968750
     0.075000     0.125000     0.968750
     0.025000     0.125000     0.937500
     0.075000     0.175000     0.937500
     0.025000     0.275000     0.031250
     0.075000     0.225000     0.031250
     0.025000     0.225000     0.000000
     0.075000     0.275000     0.000000
     0.025000     0.275000     0.093750
     0.075000     0.225000     0.093750
     0.025000     0.225000     0.062500
     0.075000     0.275000     0.062500
     0.025000     0.275000     0.156250
     0.075000     0.225000     0.156250
     0.025000     0.225000     0.125000
     0.075000     0.275000     0.125000
     0.025000     0.275000     0.218750
     0.075000     0.225000     0.218750
     0.025000     0.225000     0.187500
     0.075000     0.275000     0.187500
     0.025000     0.275000     0.281250
     0.075000     0.225000     0.281250
     0.025000     0.225000     0.250000
     0.075000     0.275000     0.250000
     0.025000     0.275000     0.343750
     0.075000     0.225000     0.343750
     0.025000     0.225000     0.312500
     0.075000     0.275000     0.312500
     0.025000     0.275000     0.406250
     0.075000     0.225000     0.406250
     0.025000     0.225000     0.375000
     0.075000     0.275000     0.375000
     0.025000     0.275000     0.468750
     0.075000     0.225000     0.468750
     0.025000     0.225000     0.437500
     0.075000     0.275000     0.437500
     0.025000     0.275000     0.531250
     0.075000     0.225000     0.531250
     0.025000     0.225000     0.500000
     0.075000     0.275000     0.500000
     0.025000     0.275000     0.593750
     0.075000     0.225000     0.593750
     0.025000     0.225000     0.562500
     0.075000     0.275000     0.562500
     0.025000     0.275000     0.656250
     0.075000     0.225000     0.656250
     0.025000     0.225000     0.625000
     0.075000     0.275000     0.625000
     0.025000     0.275000     0.718750
     0.075000     0.225000     0.718750
     0.025000     0.225000     0.687500
     0.075000     0.275000     0.687500
     0.025000     0.275000     0.781250
     0.075000     0.225000     0.781250
     0.025000     0.225000     0.750000
     0.075000     0.275000     0.750000
     0.025000     0.275000     0.843750
     0.075000     0.225000     0.843750
     0.025000     0.225000     0.812500
     0.075000     0.275000     0.812500
     0.025000     0.275000     0.906250
     0.075000     0.225000     0.906250
     0.025000     0.225000     0.875000
     0.075000     0.275000     0.875000
     0.025000     0.275000     0.968750
     0.075000     0.225000     0.968750
     0.025000     0.225000     0.937500
     0.075000     0.275000     0.937500
     0.025000     0.375000     0.031250
     0.075000     0.325000     0.031250
     0.025000     0.325000     0.000000
     0.075000     0.375000     0.000000
     0.025000     0.375000     0.093750
     0.075000     0.325000     0.093750
     0.025000     0.325000     0.062500
     0.075000     0.375000     0.062500
     0.025000     0.375000     0.156250
     0.075000     0.325000     0.156250
     0.025000     0.325000     0.125000
     0.075000     0.375000     0.125000
     0.025000     0.375000     0.218750
     0.075000     0.325000     0.218750
     0.025000     0.325000     0.187500
     0.075000     0.375000     0.187500
     0.025000     0.375000     0.281250
     0.075000     0.325000     0.281250
     0.025000     0.325000     0.250000
     0.075000     0.375000     0.250000
     0.025000     0.375000     0.343750
     0.075000     0.325000     0.343750
     0.025000     0.325000     0.312500
     0.075000     0.375000     0.312500
     0.025000     0.375000     0.406250
     0.075000     0.325000     0.406250
     0.025000     0.325000     0.375000
     0.075000     0.375000     0.375000
     0.025000     0.375000     0.468750
     0.075000     0.325000     0.468750
     0.025000     0.325000     0.437500
     0.075000     0.375000     0.437500
     0.025000     0.375000     0.531250
     0.075000     0.325000     0.531250
     0.025000     0.325000     0.500000
     0.075000     0.375000     0.500000
     0.025000     0.375000     0.593750
     0.075000     0.325000     0.593750
     0.025000     0.325000     0.562500
     0.075000     0.375000     0.562500
     0.025000     0.375000     0.656250
     0.075000     0.325000     0.656250
     0.025000     0.325000     0.625000
     0.075000     0.375000     0.625000
     0.025000     0.375000     0.718750
     0.075000     0.325000     0.718750
     0.025000     0.325000     0.687500
     0.075000     0.375000     0.687500
     0.025000     0.375000     0.781250
     0.075000     0.325000     0.781250
     0.025000     0.325000     0.750000
     0.075000     0.375000     0.750000
     0.025000     0.375000     0.843750
     0.075000     0.325000     0.843750
     0.025000     0.325000     0.812500
     0.075000     0.375000     0.812500
     0.025000     0.375000     0.906250
     0.075000     0.325000     0.906250
     0.025000     0.325000     0.875000
     0.075000     0.375000     0.875000
     0.025000     0.375000     0.968750
     0.075000     0.325000     0.968750
     0.025000     0.325000     0.937500
     0.075000     0.375000     0.937500
     0.025000     0.475000     0.031250
     0.075000     0.425000     0.031250
     0.025000     0.425000     0.000000
     0.075000     0.475000     0.000000
     0.025000     0.475000     0.093750
     0.075000     0.425000     0.093750
     0.025000     0.425000     0.062500
     0.075000     0.475000     0.062500
     0.025000     0.475000     0.156250
     0.075000     0.425000     0.156250
     0.025000     0.425000     0.125000
     0.075000     0.475000     0.125000
     0.025000     0.475000     0.218750
     0.075000     0.425000     0.218750
     0.025000     0.425000     0.187500
     0.075000     0.475000     0.187500
     0.025000     0.475000     0.281250
     0.075000     0.425000     0.281250
     0.025000     0.425000     0.250000
     0.075000     0.475000     0.250000
     0.025000     0.475000     0.343750
     0.075000     0.425000     0.343750
     0.025000     0.425000     0.312500
     0.075000     0.475000     0.312500
     0.025000     0.475000     0.406250
     0.075000     0.425000     0.406250
     0.025000     0.425000     0.375000
     0.075000     0.475000     0.375000
     0.025000     0.475000     0.468750
     0.075000     0.425000     0.468750
     0.025000     0.425000     0.437500
     0.075000     0.475000     0.437500
     0.025000     0.475000     0.531250
     0.075000     0.425000     0.531250
     0.025000     0.425000     0.500000
     0.075000     0.475000     0.500000
     0.025000     0.475000     0.593750
     0.075000     0.425000     0.593750
     0.025000     0.425000     0.562500
     0.075000     0.475000     0.562500
     0.025000     0.475000     0.656250
     0.075000     0.425000     0.656250
     0.025000     0.425000     0.625000
     0.075000     0.475000     0.625000
     0.025000     0.475000     0.718750
     0.075000     0.425000     0.718750
     0.025000     0.425000     0.687500
     0.075000     0.475000     0.687500
     0.025000     0.475000     0.781250
     0.075000     0.425000     0.781250
     0.025000     0.425000     0.750000
     0.075000     0.475000     0.750000
     0.025000     0.475000     0.843750
     0.075000     0.425000     0.843750
     0.025000     0.425000     0.812500
     0.075000     0.475000     0.812500
     0.025000     0.475000     0.906250
     0.075000     0.425000     0.906250
     0.025000     0.425000     0.875000
     0.075000     0.475000     0.875000
     0.025000     0.475000     0.968750
     0.075000     0.425000     0.968750
     0.025000     0.425000     0.937500
     0.075000     0.475000     0.937500
     0.025000     0.575000     0.031250
     0.075000     0.525000     0.031250
     0.025000     0.525000     0.000000
     0.075000     0.575000     0.000000
     0.025000     0.575000     0.093750
     0.075000     0.525000     0.093750
     0.025000     0.525000     0.062500
     0.075000     0.575000     0.062500
     0.025000     0.575000     0.156250
     0.075000     0.525000     0.156250
     0.025000     0.525000     0.125000
     0.075000     0.575000     0.125000
     0.025000     0.575000     0.218750
     0.075000     0.525000     0.218750
     0.025000     0.525000     0.187500
     0.075000     0.575000     0.187500
     0.025000     0.575000     0.281250
     0.075000     0.525000     0.281250
     0.025000     0.525000     0.250000
     0.075000     0.575000     0.250000
     0.025000     0.575000     0.343750
     0.075000     0.525000     0.343750
     0.025000     0.525000     0.312500
     0.075000     0.575000     0.312500
     0.025000     0.575000     0.406250
     0.075000     0.525000     0.406250
     0.025000     0.525000     0.375000
     0.075000     0.575000     0.375000
     0.025000     0.575000     0.468750
     0.075000     0.525000     0.468750
     0.025000     0.525000     0.437500
     0.075000     0.575000     0.437500
     0.025000     0.575000     0.531250
     0.075000     0.525000     0.531250
     0.025000     0.525000     0.500000
     0.075000     0.575000     0.500000
     0.025000     0.575000     0.593750
     0.075000     0.525000     0.593750
     0.025000     0.525000     0.562500
     0.075000     0.575000     0.562500
     0.025000     0.575000     0.656250
     0.075000     0.525000     0.656250
     0.025000     0.525000     0.625000
     0.075000     0.575000     0.625000
     0.025000     0.575000     0.718750
     0.075000     0.525000     0.718750
     0.025000     0.525000     0.687500
     0.075000     0.575000     0.687500
     0.025000     0.575000     0.781250
     0.075000     0.525000     0.781250
     0.025000     0.525000     0.750000
     0.075000     0.575000     0.750000
     0.025000     0.575000     0.843750
     0.075000     0.525000     0.843750
     0.025000     0.525000     0.812500
     0.075000     0.575000     0.812500
     0.025000     0.575000     0.906250
     0.075000     0.525000     0.906250
     0.025000     0.525000     0.875000
     0.075000     0.575000     0.875000
     0.025000     0.575000     0.968750
     0.075000     0.525000     0.968750
     0.025000     0.525000     0.937500
     0.075000     0.575000     0.937500
     0.025000     0.675000     0.031250
     0.075000     0.625000     0.031250
     0.025000     0.625000     0.000000
     0.075000     0.675000     0.000000
     0.025000     0.675000     0.093750
     0.075000     0.625000     0.093750
     0.025000     0.625000     0.062500
     0.075000     0.675000     0.062500
     0.025000     0.675000     0.156250
     0.075000     0.625000     0.156250
     0.025000     0.625000     0.125000
     0.075000     0.675000     0.125000
     0.025000     0.675000     0.218750
     0.075000     0.625000     0.218750
     0.025000     0.625000     0.187500
     0.075000     0.675000     0.187500
     0.025000     0.675000     0.281250
     0.075000     0.625000     0.281250
     0.025000     0.625000     0.250000
     0.075000     0.675000     0.250000
     0.025000     0.675000     0.343750
     0.075000     0.625000     0.343750
     0.025000     0.625000     0.312500
     0.075000     0.675000     0.312500
     0.025000     0.675000     0.406250
     0.075000     0.625000     0.406250
     0.025000     0.625000     0.375000
     0.075000     0.675000     0.375000
     0.025000     0.675000     0.468750
     0.075000     0.625000     0.468750
     0.025000     0.625000     0.437500
     0.075000     0.675000     0.437500
     0.025000     0.675000     0.531250
     0.075000     0.625000     0.531250
     0.025000     0.625000     0.500000
     0.075000     0.675000     0.500000
     0.025000     0.675000     0.593750
     0.075000     0.625000     0.593750
     0.025000     0.625000     0.562500
     0.075000     0.675000     0.562500
     0.025000     0.675000     0.656250
     0.075000     0.625000     0.656250
     0.025000     0.625000     0.625000
     0.075000     0.675000     0.625000
     0.025000     0.675000     0.718750
     0.075000     0.625000     0.718750
     0.025000     0.625000     0.687500
     0.075000     0.675000     0.687500
     0.025000     0.675000     0.781250
     0.075000     0.625000     0.781250
     0.025000     0.625000     0.750000
     0.075000     0.675000     0.750000
     0.025000     0.675000     0.843750
     0.075000     0.625000     0.843750
     0.025000     0.625000     0.812500
     0.075000     0.675000     0.812500
     0.025000     0.675000     0.906250
     0.075000     0.625000     0.906250
     0.025000     0.625000     0.875000
     0.075000     0.675000     0.875000
     0.025000     0.675000     0.968750
     0.075000     0.625000     0.968750
     0.025000     0.625000     0.937500
     0.075000     0.675000     0.937500
     0.025000     0.775000     0.031250
     0.075000     0.725000     0.031250
     0.025000     0.725000     0.000000
     0.075000     0.775000     0.000000
     0.025000     0.775000     0.093750
     0.075000     0.725000     0.093750
     0.025000     0.725000     0.062500
     0.075000     0.775000     0.062500
     0.025000     0.775000     0.156250
     0.075000     0.725000     0.156250
     0.025000     0.725000     0.125000
     0.075000     0.775000     0.125000
     0.025000     0.775000     0.218750
     0.075000     0.725000     0.218750
     0.025000     0.725000     0.187500
     0.075000     0.775000     0.187500
     0.025000     0.775000     0.281250
     0.075000     0.725000     0.281250
     0.025000     0.725000     0.250000
     0.075000     0.775000     0.250000
     0.025000     0.775000     0.343750
     0.075000     0.725000     0.343750
     0.025000     0.725000     0.312500
     0.075000     0.775000     0.312500
     0.025000     0.775000     0.406250
     0.075000     0.725000     0.406250
     0.025000     0.725000     0.375000
     0.075000     0.775000     0.375000
     0.025000     0.775000     0.468750
     0.075000     0.725000     0.468750
     0.025000     0.725000     0.437500
     0.075000     0.775000     0.437500
     0.025000     0.775000     0.531250
     0.075000     0.725000     0.531250
     0.025000     0.725000     0.500000
     0.075000     0.775000     0.500000
     0.025000     0.775000     0.593750
     0.075000     0.725000     0.593750
     0.025000     0.725000     0.562500
     0.075000     0.775000     0.562500
     0.025000     0.775000     0.656250
     0.075000     0.725000     0.656250
     0.025000     0.725000     0.625000
     0.075000     0.775000     0.625000
     0.025000     0.775000     0.718750
     0.075000     0.725000     0.718750
     0.025000     0.725000     0.687500
     0.075000     0.775000     0.687500
     0.025000     0.775000     0.781250
     0.075000     0.725000     0.781250
     0.025000     0.725000     0.750000
     0.075000     0.775000     0.750000
     0.025000     0.775000     0.843750
     0.075000     0.725000     0.843750
     0.025000     0.725000     0.812500
     0.075000     0.775000     0.812500
     0.025000     0.775000     0.906250
     0.075000     0.725000     0.906250
     0.025000     0.725000     0.875000
     0.075000     0.775000     0.875000
     0.025000     0.775000     0.968750
     0.075000     0.725000     0.968750
     0.025000     0.725000     0.937500
     0.075000     0.775000     0.937500
     0.025000     0.875000     0.031250
     0.075000     0.825000     0.031250
     0.025000     0.825000     0.000000
     0.075000     0.875000     0.000000
     0.025000     0.875000     0.093750
     0.075000     0.825000     0.093750
     0.025000     0.825000     0.062500
     0.075000     0.875000     0.062500
     0.025000     0.875000     0.156250
     0.075000     0.825000     0.156250
     0.025000     0.825000     0.125000
     0.075000     0.875000     0.125000
     0.025000     0.875000     0.218750
     0.075000     0.825000     0.218750
     0.025000     0.825000     0.187500
     0.075000     0.875000     0.187500
     0.025000     0.875000     0.281250
     0.075000     0.825000     0.281250
     0.025000     0.825000     0.250000
     0.075000     0.875000     0.250000
     0.025000     0.875000     0.343750
     0.075000     0.825000     0.343750
     0.025000     0.825000     0.312500
     0.075000     0.875000     0.312500
     0.025000     0.875000     0.406250
     0.075000     0.825000     0.406250
     0.025000     0.825000     0.375000
     0.075000     0.875000     0.375000
     0.025000     0.875000     0.468750
     0.075000     0.825000     0.468750
     0.025000     0.825000     0.437500
     0.075000     0.875000     0.437500
     0.025000     0.875000     0.531250
     0.075000     0.825000     0.531250
     0.025000     0.825000     0.500000
     0.075000     0.875000     0.500000
     0.025000     0.875000     0.593750
     0.075000     0.825000     0.593750
     0.025000     0.825000     0.562500
     0.075000     0.875000     0.562500
     0.025000     0.875000     0.656250
     0.075000     0.825000     0.656250
     0.025000     0.825000     0.625000
     0.075000     0.875000     0.625000
     0.025000     0.875000     0.718750
     0.075000     0.825000     0.718750
     0.025000     0.825000     0.687500
     0.075000     0.875000     0.687500
     0.025000     0.875000     0.781250
     0.075000     0.825000     0.781250
     0.025000     0.825000     0.750000
     0.075000     0.875000     0.750000
     0.025000     0.875000     0.843750
     0.075000     0.825000     0.843750
     0.025000     0.825000     0.812500
     0.075000     0.875000     0.812500
     0.025000     0.875000     0.906250
     0.075000     0.825000     0.906250
     0.025000     0.825000     0.875000
     0.075000     0.875000     0.875000
     0.025000     0.875000     0.968750
     0.075000     0.825000     0.968750
     0.025000     0.825000     0.937500
     0.075000     0.875000     0.937500
     0.025000     0.975000     0.031250
     0.075000     0.925000     0.031250
     0.025000     0.925000     0.000000
     0.075000     0.975000     0.000000
     0.025000     0.975000     0.093750
     0.075000     0.925000     0.093750
     0.025000     0.925000     0.062500
     0.075000     0.975000     0.062500
     0.025000     0.975000     0.156250
     0.075000     0.925000     0.156250
     0.025000     0.925000     0.125000
     0.075000     0.975000     0.125000
     0.025000     0.975000     0.218750
     0.075000     0.925000     0.218750
     0.025000     0.925000     0.187500
     0.075000     0.975000     0.187500
     0.025000     0.975000     0.281250
     0.075000     0.925000     0.281250
     0.025000     0.925000     0.250000
     0.075000     0.975000     0.250000
     0.025000     0.975000     0.343750
     0.075000     0.925000     0.343750
     0.025000     0.925000     0.312500
     0.075000     0.975000     0.312500
     0.025000     0.975000     0.406250
     0.075000     0.925000     0.406250
     0.025000     0.925000     0.375000
     0.075000     0.975000     0.375000
     0.025000     0.975000     0.468750
     0.075000     0.925000     0.468750
     0.025000     0.925000     0.437500
     0.075000     0.975000     0.437500
     0.025000     0.975000     0.531250
     0.075000     0.925000     0.531250
     0.025000     0.925000     0.500000
     0.075000     0.975000     0.500000
     0.025000     0.975000     0.593750
     0.075000     0.925000     0.593750
     0.025000     0.925000     0.562500
     0.075000     0.975000     0.562500
     0.025000     0.975000     0.656250
     0.075000     0.925000     0.656250
     0.025000     0.925000     0.625000
     0.075000     0.975000     0.625000
     0.025000     0.975000     0.718750
     0.075000     0.925000     0.718750
     0.025000     0.925000     0.687500
     0.075000     0.975000     0.687500
     0.025000     0.975000     0.781250
     0.075000     0.925000     0.781250
     0.025000     0.925000     0.750000
     0.075000     0.975000     0.750000
     0.025000     0.975000     0.843750
     0.075000     0.925000     0.843750
     0.025000     0.925000     0.812500
     0.075000     0.975000     0.812500
     0.025000     0.975000     0.906250
     0.075000     0.925000     0.906250
     0.025000     0.925000     0.875000
     0.075000     0.975000     0.875000
     0.025000     0.975000     0.968750
     0.075000     0.925000     0.968750
     0.025000     0.925000     0.937500
     0.075000     0.975000     0.937500
     0.125000     0.075000     0.031250
     0.175000     0.025000     0.031250
     0.125000     0.025000     0.000000
     0.175000     0.075000     0.000000
     0.125000     0.075000     0.093750
     0.175000     0.025000     0.093750
     0.125000     0.025000     0.062500
     0.175000     0.075000     0.062500
     0.125000     0.075000     0.156250
     0.175000     0.025000     0.156250
     0.125000     0.025000     0.125000
     0.175000     0.075000     0.125000
     0.125000     0.075000     0.218750
     0.175000     0.025000     0.218750
     0.125000     0.025000     0.187500
     0.175000     0.075000     0.187500
     0.125000     0.075000     0.281250
     0.175000     0.025000     0.281250
     0.125000     0.025000     0.250000
     0.175000     0.075000     0.250000
     0.125000     0.075000     0.343750
     0.175000     0.025000     0.343750
     0.125000     0.025000     0.312500
     0.175000     0.075000     0.312500
     0.125000     0.075000     0.406250
     0.175000     0.025000     0.406250
     0.125000     0.025000     0.375000
     0.175000     0.075000     0.375000
     0.125000     0.075000     0.468750
     0.175000     0.025000     0.468750
     0.125000     0.025000     0.437500
     0.175000     0.075000     0.437500
     0.125000     0.075000     0.531250
     0.175000     0.025000     0.531250
     0.125000     0.025000     0.500000
     0.175000     0.075000     0.500000
     0.125000     0.075000     0.593750
     0.175000     0.025000     0.593750
     0.125000     0.025000     0.562500
     0.175000     0.075000     0.562500
     0.125000     0.075000     0.656250
     0.175000     0.025000     0.656250
     0.125000     0.025000     0.625000
     0.175000     0.075000     0.625000
     0.125000     0.075000     0.718750
     0.175000     0.025000     0.718750
     0.125000     0.025000     0.687500
     0.175000     0.075000     0.687500
     0.125000     0.075000     0.781250
     0.175000     0.025000     0.781250
     0.125000     0.025000     0.750000
     0.175000     0.075000     0.750000
     0.125000     0.075000     0.843750
     0.175000     0.025000     0.843750
     0.125000     0.025000     0.812500
     0.175000     0.075000     0.812500
     0.125000     0.075000     0.906250
     0.175000     0.025000     0.906250
     0.125000     0.025000     0.875000
     0.175000     0.075000     0.875000
     0.125000     0.075000     0.968750
     0.175000     0.025000     0.968750
     0.125000     0.025000     0.937500
     0.175000     0.075000     0.937500
     0.125000     0.175000     0.031250
     0.175000     0.125000     0.031250
     0.125000     0.125000     0.000000
     0.175000     0.175000     0.000000
     0.125000     0.175000     0.093750
     0.175000     0.125000     0.093750
     0.125000     0.125000     0.062500
     0.175000     0.175000     0.062500
     0.125000     0.175000     0.156250
     0.175000     0.125000     0.156250
     0.125000     0.125000     0.125000
     0.175000     0.175000     0.125000
     0.125000     0.175000     0.218750
     0.175000     0.125000     0.218750
     0.125000     0.125000     0.187500
     0.175000     0.175000     0.187500
     0.125000     0.175000     0.281250
     0.175000     0.125000     0.281250
     0.125000     0.125000     0.250000
     0.175000     0.175000     0.250000
     0.125000     0.175000     0.343750
     0.175000     0.125000     0.343750
     0.125000     0.125000     0.312500
     0.175000     0.175000     0.312500
     0.125000     0.175000     0.406250
     0.175000     0.125000     0.406250
     0.125000     0.125000     0.375000
     0.175000     0.175000     0.375000
     0.125000     0.175000     0.468750
     0.175000     0.125000     0.468750
     0.125000     0.125000     0.437500
     0.175000     0.175000     0.437500
     0.125000     0.175000     0.531250
     0.175000     0.125000     0.531250
     0.125000     0.125000     0.500000
     0.175000     0.175000     0.500000
     0.125000     0.175000     0.593750
     0.175000     0.125000     0.593750
     0.125000     0.125000     0.562500
     0.175000     0.175000     0.562500
     0.125000     0.175000     0.656250