written by diffit!
2.0
 10 0 0
 0 10 0
 0 0 10
 O Ti
 22 12
Cartesian
     0.897197     3.695803     1.490500
     3.695803     0.897197     1.490500
     1.399303     1.399303     0.000000
     3.193697     3.193697     0.000000
     4.248609    -1.543423     4.498565
     5.718796    -3.336660     5.072865
     1.853609    -0.979630     3.726529
     8.113787    -3.900401     5.844825
     2.783663    -3.333854     2.861744
     7.183735    -1.546245     6.709671
     6.721391    -0.747760     4.227358
     3.246027    -4.132319     5.344017
     7.926257    -3.242522     3.105031
     2.041068    -1.637597     6.466420
     7.360187    -2.307442     9.460071
     2.607227    -2.572704     0.111289
     8.431434    -4.752319     8.535273
     1.535946    -0.127771     1.036089
     6.238441    -4.411728     7.609758
     3.728931    -0.468355     1.961613
     4.641516    -2.258918     7.247945
     5.325921    -2.621174     2.323416
     4.418176    -3.691634     3.649359
     5.549227    -1.188437     5.922084
     7.539421    -2.447442     4.738741
     2.427936    -2.432573     4.832712
     5.249026    -0.593993     2.876881
     4.718374    -4.286048     6.694564
     2.118816    -1.779290     1.778223
     7.848619    -3.100914     7.793150
     6.269151     2.341976     2.242354
     5.794739    -3.408252     0.506683
     0.000000     0.000000     0.000000
     2.296500     2.296500     1.490500

