written by diffit!
1.0
     4.463095    -0.391079     3.134733
    40.189952    34.010352   -24.253232
     3.977392    58.064568    33.566408
 O Ti
 1152 640
Cartesian
     3.980206     5.196993     1.479567
     6.003820     5.921326     2.819303
     1.512731     3.848204     1.392140
     8.471282     7.270052     2.906669
     3.471577     3.011725     2.966294
     6.512446     8.106572     1.332590
     6.228312     5.793575     0.080578
     3.755733     5.324695     4.218272
     8.563800     4.783248     1.636496
     1.420150     6.335062     2.662440
     6.444470    10.585834     2.698357
     3.539603     0.532418     1.600550
     8.589801     9.724041     4.298865
     1.394214     1.394208    -0.000003
     6.436118     8.264174     4.312080
     3.547883     2.854074    -0.013211
     4.113424     7.746125     2.749887
     5.870647     3.372132     1.548967
     4.477380    12.455064     5.675368
     6.500994    13.179397     7.015104
     2.009905    11.106275     5.587941
     8.968456    14.528123     7.102470
     3.968751    10.269796     7.162095
     7.009620    15.364643     5.528391
     6.725486    13.051646     4.276379
     4.252907    12.582766     8.414073
     9.060974    12.041319     5.832297
     1.917324    13.593133     6.858241
     6.941644    17.843905     6.894158
     4.036777     7.790489     5.796351
     9.086975    16.982112     8.494666
     1.891388     8.652279     4.195798
     6.933292    15.522245     8.507881
     4.045057    10.112145     4.182590
     4.610598    15.004196     6.945688
     6.367821    10.630203     5.744768
     4.974554    19.713135     9.871169
     6.998168    20.437468    11.210905
     2.507079    18.364346     9.783742
     9.465630    21.786194    11.298271
     4.465925    17.527867    11.357896
     7.506794    22.622714     9.724192
     7.222660    20.309717     8.472180
     4.750081    19.840837    12.609874
     9.558148    19.299390    10.028098
     2.414498    20.851204    11.054042
     7.438818    25.101976    11.089959
     4.533951    15.048560     9.992152
     9.584149    24.240183    12.690467
     2.388562    15.910350     8.391599
     7.430466    22.780316    12.703682
     4.542231    17.370216     8.378391
     5.107772    22.262267    11.141489
     6.864995    17.888274     9.940569
     5.471728    26.971206    14.066970
     7.495342    27.695539    15.406706
     3.004253    25.622417    13.979543
     9.962804    29.044265    15.494072
     4.963099    24.785938    15.553697
     8.003968    29.880785    13.919993
     7.719834    27.567788    12.667981
     5.247255    27.098908    16.805675
    10.055322    26.557461    14.223899
     2.911672    28.109275    15.249843
     7.935992    32.360047    15.285760
     5.031125    22.306631    14.187953
    10.081323    31.498254    16.886268
     2.885736    23.168421    12.587400
     7.927640    30.038387    16.899483
     5.039405    24.628287    12.574192
     5.604946    29.520338    15.337290
     7.362169    25.146345    14.136370
     5.968902    34.229277    18.262771
     7.992516    34.953610    19.602507
     3.501427    32.880488    18.175344
    10.459978    36.302336    19.689873
     5.460273    32.044009    19.749498
     8.501142    37.138856    18.115794
     8.217008    34.825859    16.863782
     5.744429    34.356979    21.001476
    10.552496    33.815532    18.419700
     3.408846    35.367346    19.445644
     8.433166    39.618118    19.481561
     5.528299    29.564702    18.383754
    10.578497    38.756325    21.082069
     3.382910    30.426492    16.783201
     8.424814    37.296458    21.095284
     5.536579    31.886358    16.769993
     6.102120    36.778409    19.533091
     7.859343    32.404416    18.332171
     6.466076    41.487348    22.458572
     8.489690    42.211681    23.798308
     3.998601    40.138559    22.371145
    10.957152    43.560407    23.885674
     5.957447    39.302080    23.945299
     8.998316    44.396927    22.311595
     8.714182    42.083930    21.059583
     6.241603    41.615050    25.197277
    11.049670    41.073603    22.615501
     3.906020    42.625417    23.641445
     8.930340    46.876189    23.677362
     6.025473    36.822773    22.579555
    11.075671    46.014396    25.277870
     3.880084    37.684563    20.979002
     8.921988    44.554529    25.291085
     6.033753    39.144429    20.965794
     6.599294    44.036480    23.728892
     8.356517    39.662487    22.527972
     6.963250    48.745419    26.654373
     8.986864    49.469752    27.994109
     4.495775    47.396630    26.566946
    11.454326    50.818478    28.081475
     6.454621    46.560151    28.141100
     9.495490    51.654998    26.507396
     9.211356    49.342001    25.255384
     6.738777    48.873121    29.393078
    11.546844    48.331674    26.811302
     4.403194    49.883488    27.837246
     9.427514    54.134260    27.873163
     6.522647    44.080844    26.775356
    11.572845    53.272467    29.473671
     4.377258    44.942634    25.174803
     9.419162    51.812600    29.486886
     6.530927    46.402500    25.161595
     7.096468    51.294551    27.924693
     8.853691    46.920558    26.723773
     7.460424    56.003490    30.850174
     9.484038    56.727823    32.189910
     4.992949    54.654701    30.762747
    11.951500    58.076549    32.277276
     6.951795    53.818222    32.336901
     9.992664    58.913069    30.703197
     9.708530    56.600072    29.451185
     7.235951    56.131192    33.588879
    12.044018    55.589745    31.007103
     4.900368    57.141559    32.033047
     9.924688    61.392331    32.068964
     7.019821    51.338915    30.971157
    12.070019    60.530538    33.669472
     4.874432    52.200705    29.370604
     9.916336    59.070671    33.682687
     7.028101    53.660571    29.357396
     7.593642    58.552622    32.120494
     9.350865    54.178629    30.919574
     9.003950     9.448287    -1.552087
    11.027564    10.172620    -0.212351
     6.536475     8.099498    -1.639514
    13.495026    11.521346    -0.124985
     8.495321     7.263019    -0.065360
    11.536190    12.357866    -1.699064
    11.252056    10.044869    -2.951076
     8.779477     9.575989     1.186618
    13.587544     9.034542    -1.395158
     6.443894    10.586356    -0.369214
    11.468214    14.837128    -0.333297
     8.563347     4.783712    -1.431104
    13.613545    13.975335     1.267211
     6.417958     5.645502    -3.031657
    11.459862    12.515468     1.280426
     8.571627     7.105368    -3.044865
     9.137168    11.997419    -0.281767
    10.894391     7.623426    -1.482687
     9.501124    16.706358     2.643714
    11.524738    17.430691     3.983450
     7.033649    15.357569     2.556287
    13.992200    18.779417     4.070816
     8.992495    14.521090     4.130441
    12.033364    19.615937     2.496737
    11.749230    17.302940     1.244725
     9.276651    16.834060     5.382419
    14.084718    16.292613     2.800643
     6.941068    17.844427     3.826587
    11.965388    22.095199     3.862504
     9.060521    12.041783     2.764697
    14.110719    21.233406     5.463012
     6.915132    12.903573     1.164144
    11.957036    19.773539     5.476227
     9.068801    14.363439     1.150936
     9.634342    19.255490     3.914034
    11.391565    14.881497     2.713114
     9.998298    23.964429     6.839515
    12.021912    24.688762     8.179251
     7.530823    22.615640     6.752088
    14.489374    26.037488     8.266617
     9.489669    21.779161     8.326242
    12.530538    26.874008     6.692538
    12.246404    24.561011     5.440526
     9.773825    24.092131     9.578220
    14.581892    23.550684     6.996444
     7.438242    25.102498     8.022388
    12.462562    29.353270     8.058305
     9.557695    19.299854     6.960498
    14.607893    28.491477     9.658813
     7.412306    20.161644     5.359945
    12.454210    27.031610     9.672028
     9.565975    21.621510     5.346737
    10.131516    26.513561     8.109835
    11.888739    22.139568     6.908915
    10.495472    31.222500    11.035316
    12.519086    31.946833    12.375052
     8.027997    29.873711    10.947889
    14.986548    33.295559    12.462418
     9.986843    29.037232    12.522043
    13.027712    34.132079    10.888339
    12.743578    31.819082     9.636327
    10.270999    31.350202    13.774021
    15.079066    30.808755    11.192245
     7.935416    32.360569    12.218189
    12.959736    36.611341    12.254106
    10.054869    26.557925    11.156299
    15.105067    35.749548    13.854614
     7.909480    27.419715     9.555746
    12.951384    34.289681    13.867829
    10.063149    28.879581     9.542538
    10.628690    33.771632    12.305636
    12.385913    29.397639    11.104716
    10.992646    38.480571    15.231117
    13.016260    39.204904    16.570853
     8.525171    37.131782    15.143690
    15.483722    40.553630    16.658219
    10.484017    36.295303    16.717844
    13.524886    41.390150    15.084140
    13.240752    39.077153    13.832128
    10.768173    38.608273    17.969822
    15.576240    38.066826    15.388046
     8.432590    39.618640    16.413990
    13.456910    43.869412    16.449907
    10.552043    33.815996    15.352100
    15.602241    43.007619    18.050415
     8.406654    34.677786    13.751547
    13.448558    41.547752    18.063630
    10.560323    36.137652    13.738339
    11.125864    41.029703    16.501437
    12.883087    36.655710    15.300517
    11.489820    45.738642    19.426918
    13.513434    46.462975    20.766654
     9.022345    44.389853    19.339491
    15.980896    47.811701    20.854020
    10.981191    43.553374    20.913645
    14.022060    48.648221    19.279941
    13.737926    46.335224    18.027929
    11.265347    45.866344    22.165623
    16.073414    45.324897    19.583847
     8.929764    46.876711    20.609791
    13.954084    51.127483    20.645708
    11.049217    41.074067    19.547901
    16.099415    50.265690    22.246216
     8.903828    41.935857    17.947348
    13.945732    48.805823    22.259431
    11.057497    43.395723    17.934140
    11.623038    48.287774    20.697238
    13.380261    43.913781    19.496318
    11.986994    52.996713    23.622719
    14.010608    53.721046    24.962455
     9.519519    51.647924    23.535292
    16.478070    55.069772    25.049821
    11.478365    50.811445    25.109446
    14.519234    55.906292    23.475742
    14.235100    53.593295    22.223730
    11.762521    53.124415    26.361424
    16.570588    52.582968    23.779648
     9.426938    54.134782    24.805592
    14.451258    58.385554    24.841509
    11.546391    48.332138    23.743702
    16.596589    57.523761    26.442017
     9.401002    49.193928    22.143149
    14.442906    56.063894    26.455232
    11.554671    50.653794    22.129941
    12.120212    55.545845    24.893039
    13.877435    51.171852    23.692119
    12.484168    60.254784    27.818520
    14.507782    60.979117    29.158256
    10.016693    58.905995    27.731093
    16.975244    62.327843    29.245622
    11.975539    58.069516    29.305247
    15.016408    63.164363    27.671543
    14.732274    60.851366    26.419531
    12.259695    60.382486    30.557225
    17.067762    59.841039    27.975449
     9.924112    61.392853    29.001393
    14.948432    65.643625    29.037310
    12.043565    55.590209    27.939503
    17.093763    64.781832    30.637818
     9.898176    56.451999    26.338950
    14.940080    63.321965    30.651033
    12.051845    57.911865    26.325742
    12.617386    62.803916    29.088840
    14.374609    58.429923    27.887920
    14.027694    13.699581    -4.583741
    16.051308    14.423914    -3.244005
    11.560219    12.350792    -4.671168
    18.518770    15.772640    -3.156639
    13.519065    11.514313    -3.097014
    16.559934    16.609160    -4.730718
    16.275800    14.296163    -5.982730
    13.803221    13.827283    -1.845036
    18.611288    13.285836    -4.426812
    11.467638    14.837650    -3.400868
    16.491958    19.088422    -3.364951
    13.587091     9.035006    -4.462758
    18.637289    18.226629    -1.764443
    11.441702     9.896796    -6.063311
    16.483606    16.766762    -1.751228
    13.595371    11.356662    -6.076519
    14.160912    16.248713    -3.313421
    15.918135    11.874720    -4.514341
    14.524868    20.957652    -0.387940
    16.548482    21.681985     0.951796
    12.057393    19.608863    -0.475367
    19.015944    23.030711     1.039162
    14.016239    18.772384     1.098787
    17.057108    23.867231    -0.534917
    16.772974    21.554234    -1.786929
    14.300395    21.085354     2.350765
    19.108462    20.543907    -0.231011
    11.964812    22.095721     0.794933
    16.989132    26.346493     0.830850
    14.084265    16.293077    -0.266957
    19.134463    25.484700     2.431358
    11.938876    17.154867    -1.867510
    16.980780    24.024833     2.444573
    14.092545    18.614733    -1.880718
    14.658086    23.506784     0.882380
    16.415309    19.132791    -0.318540
    15.022042    28.215723     3.807861
    17.045656    28.940056     5.147597
    12.554567    26.866934     3.720434
    19.513118    30.288782     5.234963
    14.513413    26.030455     5.294588
    17.554282    31.125302     3.660884
    17.270148    28.812305     2.408872
    14.797569    28.343425     6.546566
    19.605636    27.801978     3.964790
    12.461986    29.353792     4.990734
    17.486306    33.604564     5.026651
    14.581439    23.551148     3.928844
    19.631637    32.742771     6.627159
    12.436050    24.412938     2.328291
    17.477954    31.282904     6.640374
    14.589719    25.872804     2.315083
    15.155260    30.764855     5.078181
    16.912483    26.390862     3.877261
    15.519216    35.473794     8.003662
    17.542830    36.198127     9.343398
    13.051741    34.125005     7.916235
    20.010292    37.546853     9.430764
    15.010587    33.288526     9.490389
    18.051456    38.383373     7.856685
    17.767322    36.070376     6.604673
    15.294743    35.601496    10.742367
    20.102810    35.060049     8.160591
    12.959160    36.611863     9.186535
    17.983480    40.862635     9.222452
    15.078613    30.809219     8.124645
    20.128811    40.000842    10.822960
    12.933224    31.671009     6.524092
    17.975128    38.540975    10.836175
    15.086893    33.130875     6.510884
    15.652434    38.022926     9.273982
    17.409657    33.648933     8.073062
    16.016390    42.731865    12.199463
    18.040004    43.456198    13.539199
    13.548915    41.383076    12.112036
    20.507466    44.804924    13.626565
    15.507761    40.546597    13.686190
    18.548630    45.641444    12.052486
    18.264496    43.328447    10.800474
    15.791917    42.859567    14.938168
    20.599984    42.318120    12.356392
    13.456334    43.869934    13.382336
    18.480654    48.120706    13.418253
    15.575787    38.067290    12.320446
    20.625985    47.258913    15.018761
    13.430398    38.929080    10.719893
    18.472302    45.799046    15.031976
    15.584067    40.388946    10.706685
    16.149608    45.280997    13.469783
    17.906831    40.907004    12.268863
    16.513564    49.989936    16.395264
    18.537178    50.714269    17.735000
    14.046089    48.641147    16.307837
    21.004640    52.062995    17.822366
    16.004935    47.804668    17.881991
    19.045804    52.899515    16.248287
    18.761670    50.586518    14.996275
    16.289091    50.117638    19.133969
    21.097158    49.576191    16.552193
    13.953508    51.128005    17.578137
    18.977828    55.378777    17.614054
    16.072961    45.325361    16.516247
    21.123159    54.516984    19.214562
    13.927572    46.187151    14.915694
    18.969476    53.057117    19.227777
    16.081241    47.647017    14.902486
    16.646782    52.539068    17.665584
    18.404005    48.165075    16.464664
    17.010738    57.248007    20.591065
    19.034352    57.972340    21.930801
    14.543263    55.899218    20.503638
    21.501814    59.321066    22.018167
    16.502109    55.062739    22.077792
    19.542978    60.157586    20.444088
    19.258844    57.844589    19.192076
    16.786265    57.375709    23.329770
    21.594332    56.834262    20.747994
    14.450682    58.386076    21.773938
    19.475002    62.636848    21.809855
    16.570135    52.583432    20.712048
    21.620333    61.775055    23.410363
    14.424746    53.445222    19.111495
    19.466650    60.315188    23.423578
    16.578415    54.905088    19.098287
    17.143956    59.797139    21.861385
    18.901179    55.423146    20.660465
    17.507912    64.506078    24.786866
    19.531526    65.230411    26.126602
    15.040437    63.157289    24.699439
    21.998988    66.579137    26.213968
    16.999283    62.320810    26.273593
    20.040152    67.415657    24.639889
    19.756018    65.102660    23.387877
    17.283439    64.633780    27.525571
    22.091506    64.092333    24.943795
    14.947856    65.644147    25.969739
    19.972176    69.894919    26.005656
    17.067309    59.841503    24.907849
    22.117507    69.033126    27.606164
    14.921920    60.703293    23.307296
    19.963824    67.573259    27.619379
    17.075589    62.163159    23.294088
    17.641130    67.055210    26.057186
    19.398353    62.681217    24.856266
    19.051438    17.950875    -7.615395
    21.075052    18.675208    -6.275659
    16.583963    16.602086    -7.702822
    23.542514    20.023934    -6.188293
    18.542809    15.765607    -6.128668
    21.583678    20.860454    -7.762372
    21.299544    18.547457    -9.014384
    18.826965    18.078577    -4.876690
    23.635032    17.537130    -7.458466
    16.491382    19.088944    -6.432522
    21.515702    23.339716    -6.396605
    18.610835    13.286300    -7.494412
    23.661033    22.477923    -4.796097
    16.465446    14.148090    -9.094965
    21.507350    21.018056    -4.782882
    18.619115    15.607956    -9.108173
    19.184656    20.500007    -6.345075
    20.941879    16.126014    -7.545995
    19.548612    25.208946    -3.419594
    21.572226    25.933279    -2.079858
    17.081137    23.860157    -3.507021
    24.039688    27.282005    -1.992492
    19.039983    23.023678    -1.932867
    22.080852    28.118525    -3.566571
    21.796718    25.805528    -4.818583
    19.324139    25.336648    -0.680889
    24.132206    24.795201    -3.262665
    16.988556    26.347015    -2.236721
    22.012876    30.597787    -2.200804
    19.108009    20.544371    -3.298611
    24.158207    29.735994    -0.600296
    16.962620    21.406161    -4.899164
    22.004524    28.276127    -0.587081
    19.116289    22.866027    -4.912372
    19.681830    27.758078    -2.149274
    21.439053    23.384085    -3.350194
    20.045786    32.467017     0.776207
    22.069400    33.191350     2.115943
    17.578311    31.118228     0.688780
    24.536862    34.540076     2.203309
    19.537157    30.281749     2.262934
    22.578026    35.376596     0.629230
    22.293892    33.063599    -0.622782
    19.821313    32.594719     3.514912
    24.629380    32.053272     0.933136
    17.485730    33.605086     1.959080
    22.510050    37.855858     1.994997
    19.605183    27.802442     0.897190
    24.655381    36.994065     3.595505
    17.459794    28.664232    -0.703363
    22.501698    35.534198     3.608720
    19.613463    30.124098    -0.716571
    20.179004    35.016149     2.046527
    21.936227    30.642156     0.845607
    20.542960    39.725088     4.972008
    22.566574    40.449421     6.311744
    18.075485    38.376299     4.884581
    25.034036    41.798147     6.399110
    20.034331    37.539820     6.458735
    23.075200    42.634667     4.825031
    22.791066    40.321670     3.573019
    20.318487    39.852790     7.710713
    25.126554    39.311343     5.128937
    17.982904    40.863157     6.154881
    23.007224    45.113929     6.190798
    20.102357    35.060513     5.092991
    25.152555    44.252136     7.791306
    17.956968    35.922303     3.492438
    22.998872    42.792269     7.804521
    20.110637    37.382169     3.479230
    20.676178    42.274220     6.242328
    22.433401    37.900227     5.041408
    21.040134    46.983159     9.167809
    23.063748    47.707492    10.507545
    18.572659    45.634370     9.080382
    25.531210    49.056218    10.594911
    20.531505    44.797891    10.654536
    23.572374    49.892738     9.020832
    23.288240    47.579741     7.768820
    20.815661    47.110861    11.906514
    25.623728    46.569414     9.324738
    18.480078    48.121228    10.350682
    23.504398    52.372000    10.386599
    20.599531    42.318584     9.288792
    25.649729    51.510207    11.987107
    18.454142    43.180374     7.688239
    23.496046    50.050340    12.000322
    20.607811    44.640240     7.675031
    21.173352    49.532291    10.438129
    22.930575    45.158298     9.237209
    21.537308    54.241230    13.363610
    23.560922    54.965563    14.703346
    19.069833    52.892441    13.276183
    26.028384    56.314289    14.790712
    21.028679    52.055962    14.850337
    24.069548    57.150809    13.216633
    23.785414    54.837812    11.964621
    21.312835    54.368932    16.102315
    26.120902    53.827485    13.520539
    18.977252    55.379299    14.546483
    24.001572    59.630071    14.582400
    21.096705    49.576655    13.484593
    26.146903    58.768278    16.182908
    18.951316    50.438445    11.884040
    23.993220    57.308411    16.196123
    21.104985    51.898311    11.870832
    21.670526    56.790362    14.633930
    23.427749    52.416369    13.433010
    22.034482    61.499301    17.559411
    24.058096    62.223634    18.899147
    19.567007    60.150512    17.471984
    26.525558    63.572360    18.986513
    21.525853    59.314033    19.046138
    24.566722    64.408880    17.412434
    24.282588    62.095883    16.160422
    21.810009    61.627003    20.298116
    26.618076    61.085556    17.716340
    19.474426    62.637370    18.742284
    24.498746    66.888142    18.778201
    21.593879    56.834726    17.680394
    26.644077    66.026349    20.378709
    19.448490    57.696516    16.079841
    24.490394    64.566482    20.391924
    21.602159    59.156382    16.066633
    22.167700    64.048433    18.829731
    23.924923    59.674440    17.628811
    22.531656    68.757372    21.755212
    24.555270    69.481705    23.094948
    20.064181    67.408583    21.667785
    27.022732    70.830431    23.182314
    22.023027    66.572104    23.241939
    25.063896    71.666951    21.608235
    24.779762    69.353954    20.356223
    22.307183    68.885074    24.493917
    27.115250    68.343627    21.912141
    19.971600    69.895441    22.938085
    24.995920    74.146213    22.974002
    22.091053    64.092797    21.876195
    27.141251    73.284420    24.574510
    19.945664    64.954587    20.275642
    24.987568    71.824553    24.587725
    22.099333    66.414453    20.262434
    22.664874    71.306504    23.025532
    24.422097    66.932511    21.824612
    24.075182    22.202169   -10.647049
    26.098796    22.926502    -9.307313
    21.607707    20.853380   -10.734476
    28.566258    24.275228    -9.219947
    23.566553    20.016901    -9.160322
    26.607422    25.111748   -10.794026
    26.323288    22.798751   -12.046038
    23.850709    22.329871    -7.908344
    28.658776    21.788424   -10.490120
    21.515126    23.340238    -9.464176
    26.539446    27.591010    -9.428259
    23.634579    17.537594   -10.526066
    28.684777    26.729217    -7.827751
    21.489190    18.399384   -12.126619
    26.531094    25.269350    -7.814536
    23.642859    19.859250   -12.139827
    24.208400    24.751301    -9.376729
    25.965623    20.377308   -10.577649
    24.572356    29.460240    -6.451248
    26.595970    30.184573    -5.111512
    22.104881    28.111451    -6.538675
    29.063432    31.533299    -5.024146
    24.063727    27.274972    -4.964521
    27.104596    32.369819    -6.598225
    26.820462    30.056822    -7.850237
    24.347883    29.587942    -3.712543
    29.155950    29.046495    -6.294319
    22.012300    30.598309    -5.268375
    27.036620    34.849081    -5.232458
    24.131753    24.795665    -6.330265
    29.181951    33.987288    -3.631950
    21.986364    25.657455    -7.930818
    27.028268    32.527421    -3.618735
    24.140033    27.117321    -7.944026
    24.705574    32.009372    -5.180928
    26.462797    27.635379    -6.381848
    25.069530    36.718311    -2.255447
    27.093144    37.442644    -0.915711
    22.602055    35.369522    -2.342874
    29.560606    38.791370    -0.828345
    24.560901    34.533043    -0.768720
    27.601770    39.627890    -2.402424
    27.317636    37.314893    -3.654436
    24.845057    36.846013     0.483258
    29.653124    36.304566    -2.098518
    22.509474    37.856380    -1.072574
    27.533794    42.107152    -1.036657
    24.628927    32.053736    -2.134464
    29.679125    41.245359     0.563851
    22.483538    32.915526    -3.735017
    27.525442    39.785492     0.577066
    24.637207    34.375392    -3.748225
    25.202748    39.267443    -0.985127
    26.959971    34.893450    -2.186047
    25.566704    43.976382     1.940354
    27.590318    44.700715     3.280090
    23.099229    42.627593     1.852927
    30.057780    46.049441     3.367456
    25.058075    41.791114     3.427081
    28.098944    46.885961     1.793377
    27.814810    44.572964     0.541365
    25.342231    44.104084     4.679059
    30.150298    43.562637     2.097283
    23.006648    45.114451     3.123227
    28.030968    49.365223     3.159144
    25.126101    39.311807     2.061337
    30.176299    48.503430     4.759652
    22.980712    40.173597     0.460784
    28.022616    47.043563     4.772867
    25.134381    41.633463     0.447576
    25.699922    46.525514     3.210674
    27.457145    42.151521     2.009754
    26.063878    51.234453     6.136155
    28.087492    51.958786     7.475891
    23.596403    49.885664     6.048728
    30.554954    53.307512     7.563257
    25.555249    49.049185     7.622882
    28.596118    54.144032     5.989178
    28.311984    51.831035     4.737166
    25.839405    51.362155     8.874860
    30.647472    50.820708     6.293084
    23.503822    52.372522     7.319028
    28.528142    56.623294     7.354945
    25.623275    46.569878     6.257138
    30.673473    55.761501     8.955453
    23.477886    47.431668     4.656585
    28.519790    54.301634     8.968668
    25.631555    48.891534     4.643377
    26.197096    53.783585     7.406475
    27.954319    49.409592     6.205555
    26.561052    58.492524    10.331956
    28.584666    59.216857    11.671692
    24.093577    57.143735    10.244529
    31.052128    60.565583    11.759058
    26.052423    56.307256    11.818683
    29.093292    61.402103    10.184979
    28.809158    59.089106     8.932967
    26.336579    58.620226    13.070661
    31.144646    58.078779    10.488885
    24.000996    59.630593    11.514829
    29.025316    63.881365    11.550746
    26.120449    53.827949    10.452939
    31.170647    63.019572    13.151254
    23.975060    54.689739     8.852386
    29.016964    61.559705    13.164469
    26.128729    56.149605     8.839178
    26.694270    61.041656    11.602276
    28.451493    56.667663    10.401356
    27.058226    65.750595    14.527757
    29.081840    66.474928    15.867493
    24.590751    64.401806    14.440330
    31.549302    67.823654    15.954859
    26.549597    63.565327    16.014484
    29.590466    68.660174    14.380780
    29.306332    66.347177    13.128768
    26.833753    65.878297    17.266462
    31.641820    65.336850    14.684686
    24.498170    66.888664    15.710630
    29.522490    71.139436    15.746547
    26.617623    61.086020    14.648740
    31.667821    70.277643    17.347055
    24.472234    61.947810    13.048187
    29.514138    68.817776    17.360270
    26.625903    63.407676    13.034979
    27.191444    68.299727    15.798077
    28.948667    63.925734    14.597157
    27.555400    73.008666    18.723558
    29.579014    73.732999    20.063294
    25.087925    71.659877    18.636131
    32.046476    75.081725    20.150660
    27.046771    70.823398    20.210285
    30.087640    75.918245    18.576581
    29.803506    73.605248    17.324569
    27.330927    73.136368    21.462263
    32.138994    72.594921    18.880487
    24.995344    74.146735    19.906431
    30.019664    78.397507    19.942348
    27.114797    68.344091    18.844541
    32.164995    77.535714    21.542856
    24.969408    69.205881    17.243988
    30.011312    76.075847    21.556071
    27.123077    70.665747    17.230780
    27.688618    75.557798    19.993878
    29.445841    71.183805    18.792958
    29.098926    26.453463   -13.678703
    31.122540    27.177796   -12.338967
    26.631451    25.104674   -13.766130
    33.590002    28.526522   -12.251601
    28.590297    24.268195   -12.191976
    31.631166    29.363042   -13.825680
    31.347032    27.050045   -15.077692
    28.874453    26.581165   -10.939998
    33.682520    26.039718   -13.521774
    26.538870    27.591532   -12.495830
    31.563190    31.842304   -12.459913
    28.658323    21.788888   -13.557720
    33.708521    30.980511   -10.859405
    26.512934    22.650678   -15.158273
    31.554838    29.520644   -10.846190
    28.666603    24.110544   -15.171481
    29.232144    29.002595   -12.408383
    30.989367    24.628602   -13.609303
    29.596100    33.711534    -9.482902
    31.619714    34.435867    -8.143166
    27.128625    32.362745    -9.570329
    34.087176    35.784593    -8.055800
    29.087471    31.526266    -7.996175
    32.128340    36.621113    -9.629879
    31.844206    34.308116   -10.881891