written by diffit!
1.0
    45.930000     0.000000     0.000000
     0.000000    45.930000     0.000000
     0.000000     0.000000    44.715000
 O Ti C Zr
 6471 2620 1061 640
Direct
     0.019534     0.080466     0.033333
     0.080466     0.019534     0.033333
     0.030466     0.030466     0.000000
     0.069534     0.069534     0.000000
     0.019534     0.080466     0.100000
     0.080466     0.019534     0.100000
     0.030466     0.030466     0.066667
     0.069534     0.069534     0.066667
     0.019534     0.080466     0.166667
     0.080466     0.019534     0.166667
     0.030466     0.030466     0.133333
     0.069534     0.069534     0.133333
     0.019534     0.080466     0.233333
     0.080466     0.019534     0.233333
     0.030466     0.030466     0.200000
     0.069534     0.069534     0.200000
     0.019534     0.080466     0.300000
     0.080466     0.019534     0.300000
     0.030466     0.030466     0.266667
     0.069534     0.069534     0.266667
     0.080466     0.019534     0.366667
     0.030466     0.030466     0.333333
     0.019534     0.080466     0.766667
     0.069534     0.069534     0.733333
     0.019534     0.080466     0.833333
     0.080466     0.019534     0.833333
     0.069534     0.069534     0.800000
     0.019534     0.080466     0.900000
     0.080466     0.019534     0.900000
     0.030466     0.030466     0.866667
     0.069534     0.069534     0.866667
     0.019534     0.080466     0.966667
     0.080466     0.019534     0.966667
     0.030466     0.030466     0.933333
     0.069534     0.069534     0.933333
     0.019534     0.180466     0.033333
     0.080466     0.119534     0.033333
     0.030466     0.130466     0.000000
     0.069534     0.169534     0.000000
     0.019534     0.180466     0.100000
     0.080466     0.119534     0.100000
     0.030466     0.130466     0.066667
     0.069534     0.169534     0.066667
     0.080466     0.119534     0.166667
     0.030466     0.130466     0.133333
     0.069534     0.169534     0.133333
     0.030466     0.130466     0.200000
     0.019534     0.180466     0.633333
     0.069534     0.169534     0.600000
     0.019534     0.180466     0.700000
     0.080466     0.119534     0.700000
     0.030466     0.130466     0.666667
     0.069534     0.169534     0.666667
     0.019534     0.180466     0.766667
     0.080466     0.119534     0.766667
     0.030466     0.130466     0.733333
     0.069534     0.169534     0.733333
     0.019534     0.180466     0.833333
     0.080466     0.119534     0.833333
     0.030466     0.130466     0.800000
     0.069534     0.169534     0.800000
     0.019534     0.180466     0.900000
     0.080466     0.119534     0.900000
     0.030466     0.130466     0.866667
     0.069534     0.169534     0.866667
     0.019534     0.180466     0.966667
     0.080466     0.119534     0.966667
     0.030466     0.130466     0.933333
     0.069534     0.169534     0.933333
     0.080466     0.219534     0.033333
     0.030466     0.230466     0.000000
     0.030466     0.230466     0.066667
     0.019534     0.280466     0.433333
     0.019534     0.280466     0.500000
     0.080466     0.219534     0.500000
     0.069534     0.269534     0.466667
     0.019534     0.280466     0.566667
     0.080466     0.219534     0.566667
     0.030466     0.230466     0.533333
     0.069534     0.269534     0.533333
     0.019534     0.280466     0.633333
     0.080466     0.219534     0.633333
     0.030466     0.230466     0.600000
     0.069534     0.269534     0.600000
     0.019534     0.280466     0.700000
     0.080466     0.219534     0.700000
     0.030466     0.230466     0.666667
     0.069534     0.269534     0.666667
     0.019534     0.280466     0.766667
     0.080466     0.219534     0.766667
     0.030466     0.230466     0.733333
     0.069534     0.269534     0.733333
     0.019534     0.280466     0.833333
     0.080466     0.219534     0.833333
     0.030466     0.230466     0.800000
     0.069534     0.269534     0.800000
     0.019534     0.280466     0.900000
     0.080466     0.219534     0.900000
     0.030466     0.230466     0.866667
     0.069534     0.269534     0.866667
     0.019534     0.280466     0.966667
     0.080466     0.219534     0.966667
     0.030466     0.230466     0.933333
     0.069534     0.269534     0.933333
     0.019534     0.380466     0.300000
     0.069534     0.369534     0.266667
     0.019534     0.380466     0.366667
     0.080466     0.319534     0.366667
     0.069534     0.369534     0.333333
     0.019534     0.380466     0.433333
     0.080466     0.319534     0.433333
     0.030466     0.330466     0.400000
     0.069534     0.369534     0.400000
     0.019534     0.380466     0.500000
     0.080466     0.319534     0.500000
     0.030466     0.330466     0.466667
     0.069534     0.369534     0.466667
     0.019534     0.380466     0.566667
     0.080466     0.319534     0.566667
     0.030466     0.330466     0.533333
     0.069534     0.369534     0.533333
     0.019534     0.380466     0.633333
     0.080466     0.319534     0.633333
     0.030466     0.330466     0.600000
     0.069534     0.369534     0.600000
     0.019534     0.380466     0.700000
     0.080466     0.319534     0.700000
     0.030466     0.330466     0.666667
     0.069534     0.369534     0.666667
     0.019534     0.380466     0.766667
     0.080466     0.319534     0.766667
     0.030466     0.330466     0.733333
     0.069534     0.369534     0.733333
     0.019534     0.380466     0.833333
     0.080466     0.319534     0.833333
     0.030466     0.330466     0.800000
     0.069534     0.369534     0.800000
     0.019534     0.380466     0.900000
     0.080466     0.319534     0.900000
     0.030466     0.330466     0.866667
     0.069534     0.369534     0.866667
     0.019534     0.380466     0.966667
     0.080466     0.319534     0.966667
     0.030466     0.330466     0.933333
     0.069534     0.369534     0.933333
     0.019534     0.480466     0.166667
     0.069534     0.469534     0.133333
     0.019534     0.480466     0.233333
     0.080466     0.419534     0.233333
     0.030466     0.430466     0.200000
     0.069534     0.469534     0.200000
     0.019534     0.480466     0.300000
     0.080466     0.419534     0.300000
     0.030466     0.430466     0.266667
     0.069534     0.469534     0.266667
     0.019534     0.480466     0.366667
     0.080466     0.419534     0.366667
     0.030466     0.430466     0.333333
     0.069534     0.469534     0.333333
     0.019534     0.480466     0.433333
     0.080466     0.419534     0.433333
     0.030466     0.430466     0.400000
     0.069534     0.469534     0.400000
     0.019534     0.480466     0.500000
     0.080466     0.419534     0.500000
     0.030466     0.430466     0.466667
     0.069534     0.469534     0.466667
     0.019534     0.480466     0.566667
     0.080466     0.419534     0.566667
     0.030466     0.430466     0.533333
     0.069534     0.469534     0.533333
     0.019534     0.480466     0.633333
     0.080466     0.419534     0.633333
     0.030466     0.430466     0.600000
     0.069534     0.469534     0.600000
     0.019534     0.480466     0.700000
     0.080466     0.419534     0.700000
     0.030466     0.430466     0.666667
     0.069534     0.469534     0.666667
     0.019534     0.480466     0.766667
     0.080466     0.419534     0.766667
     0.030466     0.430466     0.733333
     0.069534     0.469534     0.733333
     0.019534     0.480466     0.833333
     0.080466     0.419534     0.833333
     0.030466     0.430466     0.800000
     0.069534     0.469534     0.800000
     0.019534     0.480466     0.900000
     0.080466     0.419534     0.900000
     0.030466     0.430466     0.866667
     0.069534     0.469534     0.866667
     0.019534     0.480466     0.966667
     0.080466     0.419534     0.966667
     0.030466     0.430466     0.933333
     0.069534     0.469534     0.933333
     0.019534     0.580466     0.033333
     0.080466     0.519534     0.033333
     0.069534     0.569534     0.000000
     0.019534     0.580466     0.100000
     0.080466     0.519534     0.100000
     0.030466     0.530466     0.066667
     0.069534     0.569534     0.066667
     0.019534     0.580466     0.166667
     0.080466     0.519534     0.166667
     0.030466     0.530466     0.133333
     0.069534     0.569534     0.133333
     0.019534     0.580466     0.233333
     0.080466     0.519534     0.233333
     0.030466     0.530466     0.200000
     0.069534     0.569534     0.200000
     0.019534     0.580466     0.300000
     0.080466     0.519534     0.300000
     0.030466     0.530466     0.266667
     0.069534     0.569534     0.266667
     0.019534     0.580466     0.366667
     0.080466     0.519534     0.366667
     0.030466     0.530466     0.333333
     0.069534     0.569534     0.333333
     0.019534     0.580466     0.433333
     0.080466     0.519534     0.433333
     0.030466     0.530466     0.400000
     0.069534     0.569534     0.400000
     0.019534     0.580466     0.500000
     0.080466     0.519534     0.500000
     0.030466     0.530466     0.466667
     0.069534     0.569534     0.466667
     0.019534     0.580466     0.566667
     0.080466     0.519534     0.566667
     0.030466     0.530466     0.533333
     0.069534     0.569534     0.533333
     0.019534     0.580466     0.633333
     0.080466     0.519534     0.633333
     0.030466     0.530466     0.600000
     0.069534     0.569534     0.600000
     0.019534     0.580466     0.700000
     0.080466     0.519534     0.700000
     0.030466     0.530466     0.666667
     0.069534     0.569534     0.666667
     0.019534     0.580466     0.766667
     0.080466     0.519534     0.766667
     0.030466     0.530466     0.733333
     0.069534     0.569534     0.733333
     0.019534     0.580466     0.833333
     0.080466     0.519534     0.833333
     0.030466     0.530466     0.800000
     0.069534     0.569534     0.800000
     0.019534     0.580466     0.900000
     0.080466     0.519534     0.900000
     0.030466     0.530466     0.866667
     0.069534     0.569534     0.866667
     0.019534     0.580466     0.966667
     0.080466     0.519534     0.966667
     0.030466     0.530466     0.933333
     0.069534     0.569534     0.933333
     0.019534     0.680466     0.033333
     0.080466     0.619534     0.033333
     0.030466     0.630466     0.000000
     0.069534     0.669534     0.000000
     0.019534     0.680466     0.100000
     0.080466     0.619534     0.100000
     0.030466     0.630466     0.066667
     0.069534     0.669534     0.066667
     0.019534     0.680466     0.166667
     0.080466     0.619534     0.166667
     0.030466     0.630466     0.133333
     0.069534     0.669534     0.133333
     0.019534     0.680466     0.233333
     0.080466     0.619534     0.233333
     0.030466     0.630466     0.200000
     0.069534     0.669534     0.200000
     0.019534     0.680466     0.300000
     0.080466     0.619534     0.300000
     0.030466     0.630466     0.266667
     0.069534     0.669534     0.266667
     0.019534     0.680466     0.366667
     0.080466     0.619534     0.366667
     0.030466     0.630466     0.333333
     0.069534     0.669534     0.333333
     0.019534     0.680466     0.433333
     0.080466     0.619534     0.433333
     0.030466     0.630466     0.400000
     0.069534     0.669534     0.400000
     0.019534     0.680466     0.500000
     0.080466     0.619534     0.500000
     0.030466     0.630466     0.466667
     0.069534     0.669534     0.466667
     0.019534     0.680466     0.566667
     0.080466     0.619534     0.566667
     0.030466     0.630466     0.533333
     0.069534     0.669534     0.533333
     0.019534     0.680466     0.633333
     0.080466     0.619534     0.633333
     0.030466     0.630466     0.600000
     0.069534     0.669534     0.600000
     0.019534     0.680466     0.700000
     0.080466     0.619534     0.700000
     0.030466     0.630466     0.666667
     0.069534     0.669534     0.666667
     0.019534     0.680466     0.766667
     0.080466     0.619534     0.766667
     0.030466     0.630466     0.733333
     0.069534     0.669534     0.733333
     0.019534     0.680466     0.833333
     0.080466     0.619534     0.833333
     0.030466     0.630466     0.800000
     0.069534     0.669534     0.800000
     0.019534     0.680466     0.900000
     0.080466     0.619534     0.900000
     0.030466     0.630466     0.866667
     0.069534     0.669534     0.866667
     0.019534     0.680466     0.966667
     0.080466     0.619534     0.966667
     0.030466     0.630466     0.933333
     0.069534     0.669534     0.933333
     0.019534     0.780466     0.033333
     0.080466     0.719534     0.033333
     0.030466     0.730466     0.000000
     0.069534     0.769534     0.000000
     0.019534     0.780466     0.100000
     0.080466     0.719534     0.100000
     0.030466     0.730466     0.066667
     0.069534     0.769534     0.066667
     0.019534     0.780466     0.166667
     0.080466     0.719534     0.166667
     0.030466     0.730466     0.133333
     0.069534     0.769534     0.133333
     0.019534     0.780466     0.233333
     0.080466     0.719534     0.233333
     0.030466     0.730466     0.200000
     0.069534     0.769534     0.200000
     0.019534     0.780466     0.300000
     0.080466     0.719534     0.300000
     0.030466     0.730466     0.266667
     0.069534     0.769534     0.266667
     0.019534     0.780466     0.366667
     0.080466     0.719534     0.366667
     0.030466     0.730466     0.333333
     0.069534     0.769534     0.333333
     0.019534     0.780466     0.433333
     0.080466     0.719534     0.433333
     0.030466     0.730466     0.400000
     0.069534     0.769534     0.400000
     0.019534     0.780466     0.500000
     0.080466     0.719534     0.500000
     0.030466     0.730466     0.466667
     0.069534     0.769534     0.466667
     0.019534     0.780466     0.566667
     0.080466     0.719534     0.566667
     0.030466     0.730466     0.533333
     0.069534     0.769534     0.533333
     0.019534     0.780466     0.633333
     0.080466     0.719534     0.633333
     0.030466     0.730466     0.600000
     0.069534     0.769534     0.600000
     0.019534     0.780466     0.700000
     0.080466     0.719534     0.700000
     0.030466     0.730466     0.666667
     0.069534     0.769534     0.666667
     0.019534     0.780466     0.766667
     0.080466     0.719534     0.766667
     0.030466     0.730466     0.733333
     0.069534     0.769534     0.733333
     0.019534     0.780466     0.833333
     0.080466     0.719534     0.833333
     0.030466     0.730466     0.800000
     0.069534     0.769534     0.800000
     0.019534     0.780466     0.900000
     0.080466     0.719534     0.900000
     0.030466     0.730466     0.866667
     0.069534     0.769534     0.866667
     0.019534     0.780466     0.966667
     0.080466     0.719534     0.966667
     0.030466     0.730466     0.933333
     0.069534     0.769534     0.933333
     0.019534     0.880466     0.033333
     0.080466     0.819534     0.033333
     0.030466     0.830466     0.000000
     0.069534     0.869534     0.000000
     0.019534     0.880466     0.100000
     0.080466     0.819534     0.100000
     0.030466     0.830466     0.066667
     0.069534     0.869534     0.066667
     0.019534     0.880466     0.166667
     0.080466     0.819534     0.166667
     0.030466     0.830466     0.133333
     0.069534     0.869534     0.133333
     0.019534     0.880466     0.233333
     0.080466     0.819534     0.233333
     0.030466     0.830466     0.200000
     0.069534     0.869534     0.200000
     0.019534     0.880466     0.300000
     0.080466     0.819534     0.300000
     0.030466     0.830466     0.266667
     0.069534     0.869534     0.266667
     0.019534     0.880466     0.366667
     0.080466     0.819534     0.366667
     0.030466     0.830466     0.333333
     0.069534     0.869534     0.333333
     0.019534     0.880466     0.433333
     0.080466     0.819534     0.433333
     0.030466     0.830466     0.400000
     0.069534     0.869534     0.400000
     0.019534     0.880466     0.500000
     0.080466     0.819534     0.500000
     0.030466     0.830466     0.466667
     0.069534     0.869534     0.466667
     0.019534     0.880466     0.566667
     0.080466     0.819534     0.566667
     0.030466     0.830466     0.533333
     0.069534     0.869534     0.533333
     0.019534     0.880466     0.633333
     0.080466     0.819534     0.633333
     0.030466     0.830466     0.600000
     0.069534     0.869534     0.600000
     0.019534     0.880466     0.700000
     0.080466     0.819534     0.700000
     0.030466     0.830466     0.666667
     0.069534     0.869534     0.666667
     0.019534     0.880466     0.766667
     0.080466     0.819534     0.766667
     0.030466     0.830466     0.733333
     0.069534     0.869534     0.733333
     0.019534     0.880466     0.833333
     0.080466     0.819534     0.833333
     0.030466     0.830466     0.800000
     0.069534     0.869534     0.800000
     0.019534     0.880466     0.900000
     0.080466     0.819534     0.900000
     0.030466     0.830466     0.866667
     0.069534     0.869534     0.866667
     0.019534     0.880466     0.966667
     0.080466     0.819534     0.966667
     0.030466     0.830466     0.933333
     0.069534     0.869534     0.933333
     0.019534     0.980466     0.033333
     0.080466     0.919534     0.033333
     0.030466     0.930466     0.000000
     0.069534     0.969534     0.000000
     0.019534     0.980466     0.100000
     0.080466     0.919534     0.100000
     0.030466     0.930466     0.066667
     0.069534     0.969534     0.066667
     0.019534     0.980466     0.166667
     0.080466     0.919534     0.166667
     0.030466     0.930466     0.133333
     0.069534     0.969534     0.133333
     0.019534     0.980466     0.233333
     0.080466     0.919534     0.233333
     0.030466     0.930466     0.200000
     0.069534     0.969534     0.200000
     0.019534     0.980466     0.300000
     0.080466     0.919534     0.300000
     0.030466     0.930466     0.266667
     0.069534     0.969534     0.266667
     0.019534     0.980466     0.366667
     0.080466     0.919534     0.366667
     0.030466     0.930466     0.333333
     0.069534     0.969534     0.333333
     0.019534     0.980466     0.433333
     0.080466     0.919534     0.433333
     0.030466     0.930466     0.400000
     0.069534     0.969534     0.400000
     0.019534     0.980466     0.500000
     0.080466     0.919534     0.500000
     0.030466     0.930466     0.466667
     0.069534     0.969534     0.466667
     0.019534     0.980466     0.566667
     0.080466     0.919534     0.566667
     0.030466     0.930466     0.533333
     0.069534     0.969534     0.533333
     0.019534     0.980466     0.633333
     0.080466     0.919534     0.633333
     0.030466     0.930466     0.600000
     0.069534     0.969534     0.600000
     0.019534     0.980466     0.700000
     0.080466     0.919534     0.700000
     0.030466     0.930466     0.666667
     0.069534     0.969534     0.666667
     0.019534     0.980466     0.766667
     0.080466     0.919534     0.766667
     0.030466     0.930466     0.733333
     0.069534     0.969534     0.733333
     0.019534     0.980466     0.833333
     0.080466     0.919534     0.833333
     0.030466     0.930466     0.800000
     0.069534     0.969534     0.800000
     0.019534     0.980466     0.900000
     0.080466     0.919534     0.900000
     0.030466     0.930466     0.866667
     0.069534     0.969534     0.866667
     0.019534     0.980466     0.966667
     0.080466     0.919534     0.966667
     0.030466     0.930466     0.933333
     0.069534     0.969534     0.933333
     0.119534     0.080466     0.033333
     0.180466     0.019534     0.033333
     0.130466     0.030466     0.000000
     0.169534     0.069534     0.000000
     0.119534     0.080466     0.100000
     0.180466     0.019534     0.100000
     0.130466     0.030466     0.066667
     0.169534     0.069534     0.066667
     0.119534     0.080466     0.166667
     0.180466     0.019534     0.166667
     0.130466     0.030466     0.133333
     0.169534     0.069534     0.133333
     0.119534     0.080466     0.233333
     0.180466     0.019534     0.233333
     0.130466     0.030466     0.200000
     0.169534     0.069534     0.200000
     0.180466     0.019534     0.300000
     0.130466     0.030466     0.266667
     0.119534     0.080466     0.700000
     0.119534     0.080466     0.766667
     0.180466     0.019534     0.766667
     0.169534     0.069534     0.733333
     0.119534     0.080466     0.833333
     0.180466     0.019534     0.833333
     0.130466     0.030466     0.800000
     0.169534     0.069534     0.800000
     0.119534     0.080466     0.900000
     0.180466     0.019534     0.900000
     0.130466     0.030466     0.866667
     0.169534     0.069534     0.866667
     0.119534     0.080466     0.966667
     0.180466     0.019534     0.966667
     0.130466     0.030466     0.933333
     0.169534     0.069534     0.933333
     0.119534     0.180466     0.033333
     0.180466     0.119534     0.033333
     0.130466     0.130466     0.000000
     0.169534     0.169534     0.000000
     0.119534     0.180466     0.100000
     0.180466     0.119534     0.100000
     0.130466     0.130466     0.066667
     0.169534     0.169534     0.066667
     0.180466     0.119534     0.166667
     0.130466     0.130466     0.133333
     0.119534     0.180466     0.566667
     0.169534     0.169534     0.533333
     0.119534     0.180466     0.633333
     0.180466     0.119534     0.633333
     0.130466     0.130466     0.600000
     0.169534     0.169534     0.600000
     0.119534     0.180466     0.700000
     0.180466     0.119534     0.700000
     0.130466     0.130466     0.666667
     0.169534     0.169534     0.666667
     0.119534     0.180466     0.766667
     0.180466     0.119534     0.766667
     0.130466     0.130466     0.733333
     0.169534     0.169534     0.733333
     0.119534     0.180466     0.833333
     0.180466     0.119534     0.833333
     0.130466     0.130466     0.800000
     0.169534     0.169534     0.800000
     0.119534     0.180466     0.900000
     0.180466     0.119534     0.900000
     0.130466     0.130466     0.866667
     0.169534     0.169534     0.866667
     0.119534     0.180466     0.966667
     0.180466     0.119534     0.966667
     0.130466     0.130466     0.933333
     0.169534     0.169534     0.933333
     0.130466     0.230466     0.000000
     0.119534     0.280466     0.433333
     0.169534     0.269534     0.400000
     0.119534     0.280466     0.500000
     0.180466     0.219534     0.500000
     0.130466     0.230466     0.466667
     0.169534     0.269534     0.466667
     0.119534     0.280466     0.566667
     0.180466     0.219534     0.566667
     0.130466     0.230466     0.533333
     0.169534     0.269534     0.533333
     0.119534     0.280466     0.633333
     0.180466     0.219534     0.633333
     0.130466     0.230466     0.600000
     0.169534     0.269534     0.600000
     0.119534     0.280466     0.700000
     0.180466     0.219534     0.700000
     0.130466     0.230466     0.666667
     0.169534     0.269534     0.666667
     0.119534     0.280466     0.766667
     0.180466     0.219534     0.766667
     0.130466     0.230466     0.733333
     0.169534     0.269534     0.733333
     0.119534     0.280466     0.833333
     0.180466     0.219534     0.833333
     0.130466     0.230466     0.800000
     0.169534     0.269534     0.800000
     0.119534     0.280466     0.900000
     0.180466     0.219534     0.900000
     0.130466     0.230466     0.866667
     0.169534     0.269534     0.866667
     0.119534     0.280466     0.966667
     0.180466     0.219534     0.966667
     0.130466     0.230466     0.933333
     0.169534     0.269534     0.933333
     0.119534     0.380466     0.233333
     0.119534     0.380466     0.300000
     0.180466     0.319534     0.300000
     0.169534     0.369534     0.266667
     0.119534     0.380466     0.366667
     0.180466     0.319534     0.366667
     0.130466     0.330466     0.333333
     0.169534     0.369534     0.333333
     0.119534     0.380466     0.433333
     0.180466     0.319534     0.433333
     0.130466     0.330466     0.400000
     0.169534     0.369534     0.400000
     0.119534     0.380466     0.500000
     0.180466     0.319534     0.500000
     0.130466     0.330466     0.466667
     0.169534     0.369534     0.466667
     0.119534     0.380466     0.566667
     0.180466     0.319534     0.566667
     0.130466     0.330466     0.533333
     0.169534     0.369534     0.533333
     0.119534     0.380466     0.633333
     0.180466     0.319534     0.633333
     0.130466     0.330466     0.600000
     0.169534     0.369534     0.600000
     0.119534     0.380466     0.700000
     0.180466     0.319534     0.700000
     0.130466     0.330466     0.666667
     0.169534     0.369534     0.666667
     0.119534     0.380466     0.766667
     0.180466     0.319534     0.766667
     0.130466     0.330466     0.733333
     0.169534     0.369534     0.733333
     0.119534     0.380466     0.833333
     0.180466     0.319534     0.833333
     0.130466     0.330466     0.800000
     0.169534     0.369534     0.800000
     0.119534     0.380466     0.900000
     0.180466     0.319534     0.900000
     0.130466     0.330466     0.866667
     0.169534     0.369534     0.866667
     0.119534     0.380466     0.966667
     0.180466     0.319534     0.966667
     0.130466     0.330466     0.933333
     0.169534     0.369534     0.933333
     0.119534     0.480466     0.100000
     0.169534     0.469534     0.066667
     0.119534     0.480466     0.166667
     0.180466     0.419534     0.166667
     0.169534     0.469534     0.133333
     0.119534     0.480466     0.233333
     0.180466     0.419534     0.233333
     0.130466     0.430466     0.200000
     0.169534     0.469534     0.200000
     0.119534     0.480466     0.300000
     0.180466     0.419534     0.300000
     0.130466     0.430466     0.266667
     0.169534     0.469534     0.266667
     0.119534     0.480466     0.366667
     0.180466     0.419534     0.366667
     0.130466     0.430466     0.333333
     0.169534     0.469534     0.333333
     0.119534     0.480466     0.433333
     0.180466     0.419534     0.433333
     0.130466     0.430466     0.400000
     0.169534     0.469534     0.400000
     0.119534     0.480466     0.500000
     0.180466     0.419534     0.500000
     0.130466     0.430466     0.466667
     0.169534     0.469534     0.466667
     0.119534     0.480466     0.566667
     0.180466     0.419534     0.566667
     0.130466     0.430466     0.533333
     0.169534     0.469534     0.533333
     0.119534     0.480466     0.633333
     0.180466     0.419534     0.633333
     0.130466     0.430466     0.600000
     0.169534     0.469534     0.600000
     0.119534     0.480466     0.700000
     0.180466     0.419534     0.700000
     0.130466     0.430466     0.666667
     0.169534     0.469534     0.666667
     0.119534     0.480466     0.766667
     0.180466     0.419534     0.766667
     0.130466     0.430466     0.733333
     0.169534     0.469534     0.733333
     0.119534     0.480466     0.833333
     0.180466     0.419534     0.833333
     0.130466     0.430466     0.800000
     0.169534     0.469534     0.800000
     0.119534     0.480466     0.900000
     0.180466     0.419534     0.900000
     0.130466     0.430466     0.866667
     0.169534     0.469534     0.866667
     0.119534     0.480466     0.966667
     0.180466     0.419534     0.966667
     0.130466     0.430466     0.933333
     0.169534     0.469534     0.933333
     0.119534     0.580466     0.033333
     0.180466     0.519534     0.033333
     0.130466     0.530466     0.000000
     0.169534     0.569534     0.000000
     0.119534     0.580466     0.100000
     0.180466     0.519534     0.100000
     0.130466     0.530466     0.066667
     0.169534     0.569534     0.066667
     0.119534     0.580466     0.166667
     0.180466     0.519534     0.166667
     0.130466     0.530466     0.133333
     0.169534     0.569534     0.133333
     0.119534     0.580466     0.233333
     0.180466     0.519534     0.233333
     0.130466     0.530466     0.200000
     0.169534     0.569534     0.200000
     0.119534     0.580466     0.300000
     0.180466     0.519534     0.300000
     0.130466     0.530466     0.266667
     0.169534     0.569534     0.266667
     0.119534     0.580466     0.366667
     0.180466     0.519534     0.366667
     0.130466     0.530466     0.333333
     0.169534     0.569534     0.333333
     0.119534     0.580466     0.433333
     0.180466     0.519534     0.433333
     0.130466     0.530466     0.400000
     0.169534     0.569534     0.400000
     0.119534     0.580466     0.500000
     0.180466     0.519534     0.500000
     0.130466     0.530466     0.466667
     0.169534     0.569534     0.466667
     0.119534     0.580466     0.566667
     0.180466     0.519534     0.566667
     0.130466     0.530466     0.533333
     0.169534     0.569534     0.533333
     0.119534     0.580466     0.633333
     0.180466     0.519534     0.633333
     0.130466     0.530466     0.600000
     0.169534     0.569534     0.600000
     0.119534     0.580466     0.700000
     0.180466     0.519534     0.700000
     0.130466     0.530466     0.666667
     0.169534     0.569534     0.666667
     0.119534     0.580466     0.766667
     0.180466     0.519534     0.766667
     0.130466     0.530466     0.733333
     0.169534     0.569534     0.733333
     0.119534     0.580466     0.833333