written by diffit!
1.0
     4.593000     0.000000     0.000000
     0.000000     4.593000     0.000000
     0.000000     0.000000     2.981000
 O Ti
 4 2
Cartesian
     0.897197     3.695803     1.490500
     3.695803     0.897197     1.490500
     1.399303     1.399303     0.000000
     3.193697     3.193697     0.000000
     0.000000     0.000000     0.000000
     2.296500     2.296500     1.490500
