written by diffit!
1.0
    91.860000     0.000000     0.000000
     0.000000    91.860000     0.000000
     0.000000     0.000000    89.430000
 O Ti
 48000 24000
Direct
     0.012500     0.037500     0.016667
     0.037500     0.012500     0.016667
     0.012500     0.012500     0.000000
     0.037500     0.037500     0.000000
     0.012500     0.037500     0.050000
     0.037500     0.012500     0.050000
     0.012500     0.012500     0.033333
     0.037500     0.037500     0.033333
     0.012500     0.037500     0.083333
     0.037500     0.012500     0.083333
     0.012500     0.012500     0.066667
     0.037500     0.037500     0.066667
     0.012500     0.037500     0.116667
     0.037500     0.012500     0.116667
     0.012500     0.012500     0.100000
     0.037500     0.037500     0.100000
     0.012500     0.037500     0.150000
     0.037500     0.012500     0.150000
     0.012500     0.012500     0.133333
     0.037500     0.037500     0.133333
     0.012500     0.037500     0.183333
     0.037500     0.012500     0.183333
     0.012500     0.012500     0.166667
     0.037500     0.037500     0.166667
     0.012500     0.037500     0.216667
     0.037500     0.012500     0.216667
     0.012500     0.012500     0.200000
     0.037500     0.037500     0.200000
     0.012500     0.037500     0.250000
     0.037500     0.012500     0.250000
     0.012500     0.012500     0.233333
     0.037500     0.037500     0.233333
     0.012500     0.037500     0.283333
     0.037500     0.012500     0.283333
     0.012500     0.012500     0.266667
     0.037500     0.037500     0.266667
     0.012500     0.037500     0.316667
     0.037500     0.012500     0.316667
     0.012500     0.012500     0.300000
     0.037500     0.037500     0.300000
     0.012500     0.037500     0.350000
     0.037500     0.012500     0.350000
     0.012500     0.012500     0.333333
     0.037500     0.037500     0.333333
     0.012500     0.037500     0.383333
     0.037500     0.012500     0.383333
     0.012500     0.012500     0.366667
     0.037500     0.037500     0.366667
     0.012500     0.037500     0.416667
     0.037500     0.012500     0.416667
     0.012500     0.012500     0.400000
     0.037500     0.037500     0.400000
     0.012500     0.037500     0.450000
     0.037500     0.012500     0.450000
     0.012500     0.012500     0.433333
     0.037500     0.037500     0.433333
     0.012500     0.037500     0.483333
     0.037500     0.012500     0.483333
     0.012500     0.012500     0.466667
     0.037500     0.037500     0.466667
     0.012500     0.037500     0.516667
     0.037500     0.012500     0.516667
     0.012500     0.012500     0.500000
     0.037500     0.037500     0.500000
     0.012500     0.037500     0.550000
     0.037500     0.012500     0.550000
     0.012500     0.012500     0.533333
     0.037500     0.037500     0.533333
     0.012500     0.037500     0.583333
     0.037500     0.012500     0.583333
     0.012500     0.012500     0.566667
     0.037500     0.037500     0.566667
     0.012500     0.037500     0.616667
     0.037500     0.012500     0.616667
     0.012500     0.012500     0.600000
     0.037500     0.037500     0.600000
     0.012500     0.037500     0.650000
     0.037500     0.012500     0.650000
     0.012500     0.012500     0.633333
     0.037500     0.037500     0.633333
     0.012500     0.037500     0.683333
     0.037500     0.012500     0.683333
     0.012500     0.012500     0.666667
     0.037500     0.037500     0.666667
     0.012500     0.037500     0.716667
     0.037500     0.012500     0.716667
     0.012500     0.012500     0.700000
     0.037500     0.037500     0.700000
     0.012500     0.037500     0.750000
     0.037500     0.012500     0.750000
     0.012500     0.012500     0.733333
     0.037500     0.037500     0.733333
     0.012500     0.037500     0.783333
     0.037500     0.012500     0.783333
     0.012500     0.012500     0.766667
     0.037500     0.037500     0.766667
     0.012500     0.037500     0.816667
     0.037500     0.012500     0.816667
     0.012500     0.012500     0.800000
     0.037500     0.037500     0.800000
     0.012500     0.037500     0.850000
     0.037500     0.012500     0.850000
     0.012500     0.012500     0.833333
     0.037500     0.037500     0.833333
     0.012500     0.037500     0.883333
     0.037500     0.012500     0.883333
     0.012500     0.012500     0.866667
     0.037500     0.037500     0.866667
     0.012500     0.037500     0.916667
     0.037500     0.012500     0.916667
     0.012500     0.012500     0.900000
     0.037500     0.037500     0.900000
     0.012500     0.037500     0.950000
     0.037500     0.012500     0.950000
     0.012500     0.012500     0.933333
     0.037500     0.037500     0.933333
     0.012500     0.037500     0.983333
     0.037500     0.012500     0.983333
     0.012500     0.012500     0.966667
     0.037500     0.037500     0.966667
     0.012500     0.087500     0.016667
     0.037500     0.062500     0.016667
     0.012500     0.062500     0.000000
     0.037500     0.087500     0.000000
     0.012500     0.087500     0.050000
     0.037500     0.062500     0.050000
     0.012500     0.062500     0.033333
     0.037500     0.087500     0.033333
     0.012500     0.087500     0.083333
     0.037500     0.062500     0.083333
     0.012500     0.062500     0.066667
     0.037500     0.087500     0.066667
     0.012500     0.087500     0.116667
     0.037500     0.062500     0.116667
     0.012500     0.062500     0.100000
     0.037500     0.087500     0.100000
     0.012500     0.087500     0.150000
     0.037500     0.062500     0.150000
     0.012500     0.062500     0.133333
     0.037500     0.087500     0.133333
     0.012500     0.087500     0.183333
     0.037500     0.062500     0.183333
     0.012500     0.062500     0.166667
     0.037500     0.087500     0.166667
     0.012500     0.087500     0.216667
     0.037500     0.062500     0.216667
     0.012500     0.062500     0.200000
     0.037500     0.087500     0.200000
     0.012500     0.087500     0.250000
     0.037500     0.062500     0.250000
     0.012500     0.062500     0.233333
     0.037500     0.087500     0.233333
     0.012500     0.087500     0.283333
     0.037500     0.062500     0.283333
     0.012500     0.062500     0.266667
     0.037500     0.087500     0.266667
     0.012500     0.087500     0.316667
     0.037500     0.062500     0.316667
     0.012500     0.062500     0.300000
     0.037500     0.087500     0.300000
     0.012500     0.087500     0.350000
     0.037500     0.062500     0.350000
     0.012500     0.062500     0.333333
     0.037500     0.087500     0.333333
     0.012500     0.087500     0.383333
     0.037500     0.062500     0.383333
     0.012500     0.062500     0.366667
     0.037500     0.087500     0.366667
     0.012500     0.087500     0.416667
     0.037500     0.062500     0.416667
     0.012500     0.062500     0.400000
     0.037500     0.087500     0.400000
     0.012500     0.087500     0.450000
     0.037500     0.062500     0.450000
     0.012500     0.062500     0.433333
     0.037500     0.087500     0.433333
     0.012500     0.087500     0.483333
     0.037500     0.062500     0.483333
     0.012500     0.062500     0.466667
     0.037500     0.087500     0.466667
     0.012500     0.087500     0.516667
     0.037500     0.062500     0.516667
     0.012500     0.062500     0.500000
     0.037500     0.087500     0.500000
     0.012500     0.087500     0.550000
     0.037500     0.062500     0.550000
     0.012500     0.062500     0.533333
     0.037500     0.087500     0.533333
     0.012500     0.087500     0.583333
     0.037500     0.062500     0.583333
     0.012500     0.062500     0.566667
     0.037500     0.087500     0.566667
     0.012500     0.087500     0.616667
     0.037500     0.062500     0.616667
     0.012500     0.062500     0.600000
     0.037500     0.087500     0.600000
     0.012500     0.087500     0.650000
     0.037500     0.062500     0.650000
     0.012500     0.062500     0.633333
     0.037500     0.087500     0.633333
     0.012500     0.087500     0.683333
     0.037500     0.062500     0.683333
     0.012500     0.062500     0.666667
     0.037500     0.087500     0.666667
     0.012500     0.087500     0.716667
     0.037500     0.062500     0.716667
     0.012500     0.062500     0.700000
     0.037500     0.087500     0.700000
     0.012500     0.087500     0.750000
     0.037500     0.062500     0.750000
     0.012500     0.062500     0.733333
     0.037500     0.087500     0.733333
     0.012500     0.087500     0.783333
     0.037500     0.062500     0.783333
     0.012500     0.062500     0.766667
     0.037500     0.087500     0.766667
     0.012500     0.087500     0.816667
     0.037500     0.062500     0.816667
     0.012500     0.062500     0.800000
     0.037500     0.087500     0.800000
     0.012500     0.087500     0.850000
     0.037500     0.062500     0.850000
     0.012500     0.062500     0.833333
     0.037500     0.087500     0.833333
     0.012500     0.087500     0.883333
     0.037500     0.062500     0.883333
     0.012500     0.062500     0.866667
     0.037500     0.087500     0.866667
     0.012500     0.087500     0.916667
     0.037500     0.062500     0.916667
     0.012500     0.062500     0.900000
     0.037500     0.087500     0.900000
     0.012500     0.087500     0.950000
     0.037500     0.062500     0.950000
     0.012500     0.062500     0.933333
     0.037500     0.087500     0.933333
     0.012500     0.087500     0.983333
     0.037500     0.062500     0.983333
     0.012500     0.062500     0.966667
     0.037500     0.087500     0.966667
     0.012500     0.137500     0.016667
     0.037500     0.112500     0.016667
     0.012500     0.112500     0.000000
     0.037500     0.137500     0.000000
     0.012500     0.137500     0.050000
     0.037500     0.112500     0.050000
     0.012500     0.112500     0.033333
     0.037500     0.137500     0.033333
     0.012500     0.137500     0.083333
     0.037500     0.112500     0.083333
     0.012500     0.112500     0.066667
     0.037500     0.137500     0.066667
     0.012500     0.137500     0.116667
     0.037500     0.112500     0.116667
     0.012500     0.112500     0.100000
     0.037500     0.137500     0.100000
     0.012500     0.137500     0.150000
     0.037500     0.112500     0.150000
     0.012500     0.112500     0.133333
     0.037500     0.137500     0.133333
     0.012500     0.137500     0.183333
     0.037500     0.112500     0.183333
     0.012500     0.112500     0.166667
     0.037500     0.137500     0.166667
     0.012500     0.137500     0.216667
     0.037500     0.112500     0.216667
     0.012500     0.112500     0.200000
     0.037500     0.137500     0.200000
     0.012500     0.137500     0.250000
     0.037500     0.112500     0.250000
     0.012500     0.112500     0.233333
     0.037500     0.137500     0.233333
     0.012500     0.137500     0.283333
     0.037500     0.112500     0.283333
     0.012500     0.112500     0.266667
     0.037500     0.137500     0.266667
     0.012500     0.137500     0.316667
     0.037500     0.112500     0.316667
     0.012500     0.112500     0.300000
     0.037500     0.137500     0.300000
     0.012500     0.137500     0.350000
     0.037500     0.112500     0.350000
     0.012500     0.112500     0.333333
     0.037500     0.137500     0.333333
     0.012500     0.137500     0.383333
     0.037500     0.112500     0.383333
     0.012500     0.112500     0.366667
     0.037500     0.137500     0.366667
     0.012500     0.137500     0.416667
     0.037500     0.112500     0.416667
     0.012500     0.112500     0.400000
     0.037500     0.137500     0.400000
     0.012500     0.137500     0.450000
     0.037500     0.112500     0.450000
     0.012500     0.112500     0.433333
     0.037500     0.137500     0.433333
     0.012500     0.137500     0.483333
     0.037500     0.112500     0.483333
     0.012500     0.112500     0.466667
     0.037500     0.137500     0.466667
     0.012500     0.137500     0.516667
     0.037500     0.112500     0.516667
     0.012500     0.112500     0.500000
     0.037500     0.137500     0.500000
     0.012500     0.137500     0.550000
     0.037500     0.112500     0.550000
     0.012500     0.112500     0.533333
     0.037500     0.137500     0.533333
     0.012500     0.137500     0.583333
     0.037500     0.112500     0.583333
     0.012500     0.112500     0.566667
     0.037500     0.137500     0.566667
     0.012500     0.137500     0.616667
     0.037500     0.112500     0.616667
     0.012500     0.112500     0.600000
     0.037500     0.137500     0.600000
     0.012500     0.137500     0.650000
     0.037500     0.112500     0.650000
     0.012500     0.112500     0.633333
     0.037500     0.137500     0.633333
     0.012500     0.137500     0.683333
     0.037500     0.112500     0.683333
     0.012500     0.112500     0.666667
     0.037500     0.137500     0.666667
     0.012500     0.137500     0.716667
     0.037500     0.112500     0.716667
     0.012500     0.112500     0.700000
     0.037500     0.137500     0.700000
     0.012500     0.137500     0.750000
     0.037500     0.112500     0.750000
     0.012500     0.112500     0.733333
     0.037500     0.137500     0.733333
     0.012500     0.137500     0.783333
     0.037500     0.112500     0.783333
     0.012500     0.112500     0.766667
     0.037500     0.137500     0.766667
     0.012500     0.137500     0.816667
     0.037500     0.112500     0.816667
     0.012500     0.112500     0.800000
     0.037500     0.137500     0.800000
     0.012500     0.137500     0.850000
     0.037500     0.112500     0.850000
     0.012500     0.112500     0.833333
     0.037500     0.137500     0.833333
     0.012500     0.137500     0.883333
     0.037500     0.112500     0.883333
     0.012500     0.112500     0.866667
     0.037500     0.137500     0.866667
     0.012500     0.137500     0.916667
     0.037500     0.112500     0.916667
     0.012500     0.112500     0.900000
     0.037500     0.137500     0.900000
     0.012500     0.137500     0.950000
     0.037500     0.112500     0.950000
     0.012500     0.112500     0.933333
     0.037500     0.137500     0.933333
     0.012500     0.137500     0.983333
     0.037500     0.112500     0.983333
     0.012500     0.112500     0.966667
     0.037500     0.137500     0.966667
     0.012500     0.187500     0.016667
     0.037500     0.162500     0.016667
     0.012500     0.162500     0.000000
     0.037500     0.187500     0.000000
     0.012500     0.187500     0.050000
     0.037500     0.162500     0.050000
     0.012500     0.162500     0.033333
     0.037500     0.187500     0.033333
     0.012500     0.187500     0.083333
     0.037500     0.162500     0.083333
     0.012500     0.162500     0.066667
     0.037500     0.187500     0.066667
     0.012500     0.187500     0.116667
     0.037500     0.162500     0.116667
     0.012500     0.162500     0.100000
     0.037500     0.187500     0.100000
     0.012500     0.187500     0.150000
     0.037500     0.162500     0.150000
     0.012500     0.162500     0.133333
     0.037500     0.187500     0.133333
     0.012500     0.187500     0.183333
     0.037500     0.162500     0.183333
     0.012500     0.162500     0.166667
     0.037500     0.187500     0.166667
     0.012500     0.187500     0.216667
     0.037500     0.162500     0.216667
     0.012500     0.162500     0.200000
     0.037500     0.187500     0.200000
     0.012500     0.187500     0.250000
     0.037500     0.162500     0.250000
     0.012500     0.162500     0.233333
     0.037500     0.187500     0.233333
     0.012500     0.187500     0.283333
     0.037500     0.162500     0.283333
     0.012500     0.162500     0.266667
     0.037500     0.187500     0.266667
     0.012500     0.187500     0.316667
     0.037500     0.162500     0.316667
     0.012500     0.162500     0.300000
     0.037500     0.187500     0.300000
     0.012500     0.187500     0.350000
     0.037500     0.162500     0.350000
     0.012500     0.162500     0.333333
     0.037500     0.187500     0.333333
     0.012500     0.187500     0.383333
     0.037500     0.162500     0.383333
     0.012500     0.162500     0.366667
     0.037500     0.187500     0.366667
     0.012500     0.187500     0.416667
     0.037500     0.162500     0.416667
     0.012500     0.162500     0.400000
     0.037500     0.187500     0.400000
     0.012500     0.187500     0.450000
     0.037500     0.162500     0.450000
     0.012500     0.162500     0.433333
     0.037500     0.187500     0.433333
     0.012500     0.187500     0.483333
     0.037500     0.162500     0.483333
     0.012500     0.162500     0.466667
     0.037500     0.187500     0.466667
     0.012500     0.187500     0.516667
     0.037500     0.162500     0.516667
     0.012500     0.162500     0.500000
     0.037500     0.187500     0.500000
     0.012500     0.187500     0.550000
     0.037500     0.162500     0.550000
     0.012500     0.162500     0.533333
     0.037500     0.187500     0.533333
     0.012500     0.187500     0.583333
     0.037500     0.162500     0.583333
     0.012500     0.162500     0.566667
     0.037500     0.187500     0.566667
     0.012500     0.187500     0.616667
     0.037500     0.162500     0.616667
     0.012500     0.162500     0.600000
     0.037500     0.187500     0.600000
     0.012500     0.187500     0.650000
     0.037500     0.162500     0.650000
     0.012500     0.162500     0.633333
     0.037500     0.187500     0.633333
     0.012500     0.187500     0.683333
     0.037500     0.162500     0.683333
     0.012500     0.162500     0.666667
     0.037500     0.187500     0.666667
     0.012500     0.187500     0.716667
     0.037500     0.162500     0.716667
     0.012500     0.162500     0.700000
     0.037500     0.187500     0.700000
     0.012500     0.187500     0.750000
     0.037500     0.162500     0.750000
     0.012500     0.162500     0.733333
     0.037500     0.187500     0.733333
     0.012500     0.187500     0.783333
     0.037500     0.162500     0.783333
     0.012500     0.162500     0.766667
     0.037500     0.187500     0.766667
     0.012500     0.187500     0.816667
     0.037500     0.162500     0.816667
     0.012500     0.162500     0.800000
     0.037500     0.187500     0.800000
     0.012500     0.187500     0.850000
     0.037500     0.162500     0.850000
     0.012500     0.162500     0.833333
     0.037500     0.187500     0.833333
     0.012500     0.187500     0.883333
     0.037500     0.162500     0.883333
     0.012500     0.162500     0.866667
     0.037500     0.187500     0.866667
     0.012500     0.187500     0.916667
     0.037500     0.162500     0.916667
     0.012500     0.162500     0.900000
     0.037500     0.187500     0.900000
     0.012500     0.187500     0.950000
     0.037500     0.162500     0.950000
     0.012500     0.162500     0.933333
     0.037500     0.187500     0.933333
     0.012500     0.187500     0.983333
     0.037500     0.162500     0.983333
     0.012500     0.162500     0.966667
     0.037500     0.187500     0.966667
     0.012500     0.237500     0.016667
     0.037500     0.212500     0.016667
     0.012500     0.212500     0.000000
     0.037500     0.237500     0.000000
     0.012500     0.237500     0.050000
     0.037500     0.212500     0.050000
     0.012500     0.212500     0.033333
     0.037500     0.237500     0.033333
     0.012500     0.237500     0.083333
     0.037500     0.212500     0.083333
     0.012500     0.212500     0.066667
     0.037500     0.237500     0.066667
     0.012500     0.237500     0.116667
     0.037500     0.212500     0.116667
     0.012500     0.212500     0.100000
     0.037500     0.237500     0.100000
     0.012500     0.237500     0.150000
     0.037500     0.212500     0.150000
     0.012500     0.212500     0.133333
     0.037500     0.237500     0.133333
     0.012500     0.237500     0.183333
     0.037500     0.212500     0.183333
     0.012500     0.212500     0.166667
     0.037500     0.237500     0.166667
     0.012500     0.237500     0.216667
     0.037500     0.212500     0.216667
     0.012500     0.212500     0.200000
     0.037500     0.237500     0.200000
     0.012500     0.237500     0.250000
     0.037500     0.212500     0.250000
     0.012500     0.212500     0.233333
     0.037500     0.237500     0.233333
     0.012500     0.237500     0.283333
     0.037500     0.212500     0.283333
     0.012500     0.212500     0.266667
     0.037500     0.237500     0.266667
     0.012500     0.237500     0.316667
     0.037500     0.212500     0.316667
     0.012500     0.212500     0.300000
     0.037500     0.237500     0.300000
     0.012500     0.237500     0.350000
     0.037500     0.212500     0.350000
     0.012500     0.212500     0.333333
     0.037500     0.237500     0.333333
     0.012500     0.237500     0.383333
     0.037500     0.212500     0.383333
     0.012500     0.212500     0.366667
     0.037500     0.237500     0.366667
     0.012500     0.237500     0.416667
     0.037500     0.212500     0.416667
     0.012500     0.212500     0.400000
     0.037500     0.237500     0.400000
     0.012500     0.237500     0.450000
     0.037500     0.212500     0.450000
     0.012500     0.212500     0.433333
     0.037500     0.237500     0.433333
     0.012500     0.237500     0.483333
     0.037500     0.212500     0.483333
     0.012500     0.212500     0.466667
     0.037500     0.237500     0.466667
     0.012500     0.237500     0.516667
     0.037500     0.212500     0.516667
     0.012500     0.212500     0.500000
     0.037500     0.237500     0.500000
     0.012500     0.237500     0.550000
     0.037500     0.212500     0.550000
     0.012500     0.212500     0.533333
     0.037500     0.237500     0.533333
     0.012500     0.237500     0.583333
     0.037500     0.212500     0.583333
     0.012500     0.212500     0.566667
     0.037500     0.237500     0.566667
     0.012500     0.237500     0.616667
     0.037500     0.212500     0.616667
     0.012500     0.212500     0.600000
     0.037500     0.237500     0.600000
     0.012500     0.237500     0.650000
     0.037500     0.212500     0.650000
     0.012500     0.212500     0.633333
     0.037500     0.237500     0.633333
     0.012500     0.237500     0.683333
     0.037500     0.212500     0.683333
     0.012500     0.212500     0.666667
     0.037500     0.237500     0.666667
     0.012500     0.237500     0.716667
     0.037500     0.212500     0.716667
     0.012500     0.212500     0.700000
     0.037500     0.237500     0.700000
     0.012500     0.237500     0.750000
     0.037500     0.212500     0.750000
     0.012500     0.212500     0.733333
     0.037500     0.237500     0.733333
     0.012500     0.237500     0.783333
     0.037500     0.212500     0.783333
     0.012500     0.212500     0.766667
     0.037500     0.237500     0.766667
     0.012500     0.237500     0.816667
     0.037500     0.212500     0.816667
     0.012500     0.212500     0.800000
     0.037500     0.237500     0.800000
     0.012500     0.237500     0.850000
     0.037500     0.212500     0.850000
     0.012500     0.212500     0.833333
     0.037500     0.237500     0.833333
     0.012500     0.237500     0.883333
     0.037500     0.212500     0.883333
     0.012500     0.212500     0.866667
     0.037500     0.237500     0.866667
     0.012500     0.237500     0.916667
     0.037500     0.212500     0.916667
     0.012500     0.212500     0.900000
     0.037500     0.237500     0.900000
     0.012500     0.237500     0.950000
     0.037500     0.212500     0.950000
     0.012500     0.212500     0.933333
     0.037500     0.237500     0.933333
     0.012500     0.237500     0.983333
     0.037500     0.212500     0.983333
     0.012500     0.212500     0.966667
     0.037500     0.237500     0.966667
     0.012500     0.287500     0.016667
     0.037500     0.262500     0.016667
     0.012500     0.262500     0.000000
     0.037500     0.287500     0.000000
     0.012500     0.287500     0.050000
     0.037500     0.262500     0.050000
     0.012500     0.262500     0.033333
     0.037500     0.287500     0.033333
     0.012500     0.287500     0.083333
     0.037500     0.262500     0.083333
     0.012500     0.262500     0.066667
     0.037500     0.287500     0.066667
     0.012500     0.287500     0.116667
     0.037500     0.262500     0.116667
     0.012500     0.262500     0.100000
     0.037500     0.287500     0.100000
     0.012500     0.287500     0.150000
     0.037500     0.262500     0.150000
     0.012500     0.262500     0.133333
     0.037500     0.287500     0.133333
     0.012500     0.287500     0.183333
     0.037500     0.262500     0.183333
     0.012500     0.262500     0.166667
     0.037500     0.287500     0.166667
     0.012500     0.287500     0.216667
     0.037500     0.262500     0.216667
     0.012500     0.262500     0.200000
     0.037500     0.287500     0.200000
     0.012500     0.287500     0.250000
     0.037500     0.262500     0.250000
     0.012500     0.262500     0.233333
     0.037500     0.287500     0.233333
     0.012500     0.287500     0.283333
     0.037500     0.262500     0.283333
     0.012500     0.262500     0.266667
     0.037500     0.287500     0.266667
     0.012500     0.287500     0.316667
     0.037500     0.262500     0.316667
     0.012500     0.262500     0.300000
     0.037500     0.287500     0.300000
     0.012500     0.287500     0.350000
     0.037500     0.262500     0.350000
     0.012500     0.262500     0.333333
     0.037500     0.287500     0.333333
     0.012500     0.287500     0.383333
     0.037500     0.262500     0.383333
     0.012500     0.262500     0.366667
     0.037500     0.287500     0.366667
     0.012500     0.287500     0.416667
     0.037500     0.262500     0.416667
     0.012500     0.262500     0.400000
     0.037500     0.287500     0.400000
     0.012500     0.287500     0.450000
     0.037500     0.262500     0.450000
     0.012500     0.262500     0.433333
     0.037500     0.287500     0.433333
     0.012500     0.287500     0.483333
     0.037500     0.262500     0.483333
     0.012500     0.262500     0.466667
     0.037500     0.287500     0.466667
     0.012500     0.287500     0.516667
     0.037500     0.262500     0.516667
     0.012500     0.262500     0.500000
     0.037500     0.287500     0.500000
     0.012500     0.287500     0.550000
     0.037500     0.262500     0.550000
     0.012500     0.262500     0.533333
     0.037500     0.287500     0.533333
     0.012500     0.287500     0.583333
     0.037500     0.262500     0.583333
     0.012500     0.262500     0.566667
     0.037500     0.287500     0.566667
     0.012500     0.287500     0.616667
     0.037500     0.262500     0.616667
     0.012500     0.262500     0.600000
     0.037500     0.287500     0.600000
     0.012500     0.287500     0.650000
     0.037500     0.262500     0.650000
     0.012500     0.262500     0.633333
     0.037500     0.287500     0.633333
     0.012500     0.287500     0.683333
     0.037500     0.262500     0.683333
     0.012500     0.262500     0.666667
     0.037500     0.287500     0.666667
     0.012500     0.287500     0.716667
     0.037500     0.262500     0.716667
     0.012500     0.262500     0.700000
     0.037500     0.287500     0.700000
     0.012500     0.287500     0.750000
     0.037500     0.262500     0.750000
     0.012500     0.262500     0.733333
     0.037500     0.287500     0.733333
     0.012500     0.287500     0.783333
     0.037500     0.262500     0.783333
     0.012500     0.262500     0.766667
     0.037500     0.287500     0.766667
     0.012500     0.287500     0.816667
     0.037500     0.262500     0.816667
     0.012500     0.262500     0.800000
     0.037500     0.287500     0.800000
     0.012500     0.287500     0.850000
     0.037500     0.262500     0.850000
     0.012500     0.262500     0.833333
     0.037500     0.287500     0.833333
     0.012500     0.287500     0.883333
     0.037500     0.262500     0.883333
     0.012500     0.262500     0.866667
     0.037500     0.287500     0.866667
     0.012500     0.287500     0.916667
     0.037500     0.262500     0.916667
     0.012500     0.262500     0.900000
     0.037500     0.287500     0.900000
     0.012500     0.287500     0.950000
     0.037500     0.262500     0.950000
     0.012500     0.262500     0.933333
     0.037500     0.287500     0.933333
     0.012500     0.287500     0.983333
     0.037500     0.262500     0.983333
     0.012500     0.262500     0.966667
     0.037500     0.287500     0.966667
     0.012500     0.337500     0.016667
     0.037500     0.312500     0.016667
     0.012500     0.312500     0.000000
     0.037500     0.337500     0.000000
     0.012500     0.337500     0.050000
     0.037500     0.312500     0.050000
     0.012500     0.312500     0.033333
     0.037500     0.337500     0.033333
     0.012500     0.337500     0.083333
     0.037500     0.312500     0.083333
     0.012500     0.312500     0.066667
     0.037500     0.337500     0.066667
     0.012500     0.337500     0.116667
     0.037500     0.312500     0.116667
     0.012500     0.312500     0.100000
     0.037500     0.337500     0.100000
     0.012500     0.337500     0.150000
     0.037500     0.312500     0.150000
     0.012500     0.312500     0.133333
     0.037500     0.337500     0.133333
     0.012500     0.337500     0.183333
     0.037500     0.312500     0.183333
     0.012500     0.312500     0.166667
     0.037500     0.337500     0.166667
     0.012500     0.337500     0.216667