
&GLOBAL

    PROJECT LSNO
    RUN_TYPE ENERGY #_FORCE
    PRINT_LEVEL MEDIUM

&END GLOBAL

&FORCE_EVAL

    METHOD QUICKSTEP

    &PRINT

        &FORCES ON
            FILENAME forces
        &END FORCES
        
        &STRESS_TENSOR ON
        &END STRESS_TENSOR

    &END PRINT

    STRESS_TENSOR ANALYTICAL

    &DFT

        BASIS_SET_FILE_NAME /home/ty/research/projects/materials/lsno/cp2k/BASIS_MINE
        POTENTIAL_FILE_NAME /home/ty/research/projects/materials/lsno/cp2k/POTENTIAL_MINE

        SPIN_POLARIZED TRUE
        MULTIPLICITY  0

        &QS
            EPS_DEFAULT 1.0E-16
        &END QS

        &MGRID
            NGRIDS 5
            CUTOFF !cut # 1500
            REL_CUTOFF !rel # 40
        &END MGRID

        &KPOINTS
            SCHEME GAMMA
            !SYMMETRY 
            !SCHEME MONKHORST-PACK 2 2 2
        &END KPOINTS

        &POISSON
            PERIODIC XYZ
        &END POISSON

        &SCF

            SCF_GUESS ATOMIC
            MAX_SCF 1 #100
            ADDED_MOS 40
            EPS_SCF 1.E-5

            IGNORE_CONVERGENCE_FAILURE TRUE

            &DIAGONALIZATION
                ALGORITHM STANDARD
            &END DIAGONALIZATION

            &SMEAR 
                METHOD FERMI_DIRAC
                ELECTRONIC_TEMPERATURE [K] 1000
            &END SMEAR

            &MIXING
                METHOD PULAY_MIXING
                NPULAY 12
            &END MIXING

        &END SCF

        &XC

            &XC_FUNCTIONAL
                &MGGA_X_R2SCAN
                &END MGGA_X_R2SCAN
                &MGGA_C_R2SCAN
                &END MGGA_C_R2SCAN
            &END XC_FUNCTIONAL

        &END XC

    &END DFT
        
    &SUBSYS

        &CELL
            A  5.2997510509616337    0.0000000000000000    0.0000000000000000
            B  0.0000000000000000    5.2997510509616337    0.0000000000000000
            C  0.0000000000000000    0.0000000000000000   13.0067516890548198
            PERIODIC XYZ
        &END CELL

        &COORD
            SCALED
            La      0.0000000000000000  0.0000000000000000  0.3617070369166953
            La      0.5000000000000000  0.5000000000000000  0.3617070369166953
            La      0.0000000000000000  0.5000000000000000  0.1382929630833047
            La      0.5000000000000000 -0.0000000000000000  0.1382929630833047
            La      0.0000000000000000  0.5000000000000000  0.8617070369166953
            La      0.5000000000000000  0.0000000000000000  0.8617070369166953
            La      0.0000000000000000  0.0000000000000000  0.6382929630833047
            La      0.5000000000000000  0.5000000000000000  0.6382929630833047
            Ni_u    0.0000000000000000  0.0000000000000000 -0.0000000000000000
            Ni_d    0.5000000000000000  0.5000000000000000 -0.0000000000000000
            Ni_u    0.0000000000000000  0.5000000000000000  0.5000000000000000
            Ni_d    0.5000000000000000 -0.0000000000000000  0.5000000000000000
            O       0.7500000000000000  0.2500000000000000 -0.0000000000000000
            O       0.2500000000000000  0.7500000000000000 -0.0000000000000000
            O       0.2500000000000000  0.2500000000000000 -0.0000000000000000
            O       0.7500000000000000  0.7500000000000000 -0.0000000000000000
            O       0.0000000000000000 -0.0000000000000000  0.1834519015098907
            O       0.5000000000000000  0.5000000000000000  0.1834519015098907
            O       0.0000000000000000  0.5000000000000000  0.3165480984901093
            O       0.5000000000000000 -0.0000000000000000  0.3165480984901093
            O       0.2500000000000000  0.2500000000000000  0.5000000000000000
            O       0.7500000000000000  0.7500000000000000  0.5000000000000000
            O       0.7500000000000000  0.2500000000000000  0.5000000000000000
            O       0.2500000000000000  0.7500000000000000  0.5000000000000000
            O       0.0000000000000000  0.5000000000000000  0.6834519015098908
            O       0.5000000000000000  0.0000000000000000  0.6834519015098908
            O       0.0000000000000000 -0.0000000000000000  0.8165480984901092
            O       0.5000000000000000  0.5000000000000000  0.8165480984901092
        &END COORD

        &KIND La
            ELEMENT La
            #BASIS_SET DZVP-MOLOPT-SR-GTH 
            BASIS_SET sv-pbe
            POTENTIAL GTH-PBE-q11
        &END KIND

        &KIND Ni_u
            ELEMENT Ni
            #BASIS_SET DZVP-MOLOPT-SR-GTH 
            BASIS_SET sv-pbe
            POTENTIAL GTH-PBE-q18
            MAGNETIZATION 3
        &END KIND

        &KIND Ni_d
            ELEMENT Ni
            #BASIS_SET DZVP-MOLOPT-SR-GTH 
            BASIS_SET sv-pbe
            POTENTIAL GTH-PBE-q18
            MAGNETIZATION -3
        &END KIND
        
        &KIND O
            ELEMENT O
            #BASIS_SET DZVP-MOLOPT-SR-GTH 
            BASIS_SET sv-pbe
            POTENTIAL GTH-PBE-q6
        &END KIND

    &END SUBSYS

&END FORCE_EVAL


&MOTION

    &CELL_OPT

        OPTIMIZER LBFGS
        MAX_FORCE 1.0E-4
        EXTERNAL_PRESSURE 0.0
        KEEP_SYMMETRY

    &END CELL_OPT

    &GEO_OPT

        OPTIMIZER LBFGS
        MAX_FORCE 1.0E-4
        KEEP_SPACE_GROUP

    &END GEO_OPT

    &PRINT

        &RESTART ON
            BACKUP_COPIES 0
        &END RESTART

    &END PRINT

&END MOTION

