generated by phonopy
   1.0
     5.5840615662382644    0.0000000000000000    0.0000000000000000
     2.2660112013984630    6.7542384002871101    0.0000000000000000
     2.1423393913282642    2.3914293959967843    7.8557127117172749
Ti O
  10   18
Direct
  0.7280937700000001  0.3256222800000000  0.4238197599999998
  0.2719015300000000  0.6743820699999999  0.5761835899999999
  0.7172335600000002  0.8290614399999998  0.4180048399999998
  0.2827480400000001  0.1709410900000000  0.5819992799999998
  0.3475793200000000  0.6560295500000000  0.2038657599999999
  0.6524107200000000  0.3439766100000000  0.7961369799999997
  0.3487916400000001  0.1557172700000001  0.2068838499999999
  0.6512323100000001  0.8442808799999999  0.7931147399999997
  0.0000114100000002  0.9999837799999998  0.0000028800000000
  0.9999873600000000  0.4999965499999999  0.0000073500000000
  0.3126501200000000  0.4691887299999999  0.4580561999999998
  0.6873480500000001  0.5308148100000000  0.5419459999999998
  0.0719382600000002  0.1956956300000001  0.4194470799999998
  0.9280555800000000  0.8043099699999998  0.5805446299999999
  0.5849996600000003  0.1349582000000001  0.3674202399999998
  0.4150014800000000  0.8650431999999999  0.6325809499999999
  0.4079183800000000  0.8452029399999998  0.3251411099999998
  0.5920837300000001  0.1548021200000000  0.6748540999999999
  0.9831771900000000  0.8075593699999999  0.2389857199999999
  0.0168187200000002  0.1924314100000000  0.7610225899999997
  0.3749365000000001  0.8528037899999998  0.9791776499999997
  0.6250771000000002  0.1471957300000001  0.0208180700000000
  0.9182614200000000  0.8031265799999998  0.9188150399999997
  0.0817402900000001  0.1968727200000001  0.0811800800000000
  0.7402945100000001  0.5380185000000000  0.8633722599999997
  0.2597045900000000  0.4619803599999999  0.1366239299999999
  0.2833200200000000  0.4882683999999999  0.7965140399999997
  0.7166867500000002  0.5117380000000000  0.2034792899999999
