written by diffit!
1.0
     4.463095    -0.391079     3.134733
     5.023744     4.251294    -3.031654
     0.497174     7.258071     4.195801
 O Ti
 18 10
Direct
     0.312650     0.469189     0.458056
     0.687348     0.530815     0.541946
     0.071938     0.195696     0.419447
     0.928056     0.804310     0.580545
     0.585000     0.134958     0.367420
     0.415001     0.865043     0.632581
     0.407918     0.845203     0.325141
     0.592084     0.154802     0.674854
     0.983177     0.807559     0.238986
     0.016819     0.192431     0.761023
     0.374937     0.852804     0.979178
     0.625077     0.147196     0.020818
     0.918261     0.803127     0.918815
     0.081740     0.196873     0.081180
     0.740295     0.538018     0.863372
     0.259705     0.461980     0.136624
     0.283320     0.488268     0.796514
     0.716687     0.511738     0.203479
     0.728094     0.325622     0.423820
     0.271902     0.674382     0.576184
     0.717234     0.829061     0.418005
     0.282748     0.170941     0.581999
     0.347579     0.656030     0.203866
     0.652411     0.343977     0.796137
     0.348792     0.155717     0.206884
     0.651232     0.844281     0.793115
     0.000011     0.999984     0.000003
     0.999987     0.499997     0.000007
